# vtk DataFile Version 3.0
VTK from Matlab
ASCII
DATASET POLYDATA
POINTS	5581	double
3.000000e+01 1.500000e+01 0.000000e+00
2.950000e+01 1.500000e+01 0.000000e+00
2.900000e+01 1.500000e+01 0.000000e+00
2.850000e+01 1.500000e+01 0.000000e+00
2.800000e+01 1.500000e+01 0.000000e+00
2.750000e+01 1.500000e+01 0.000000e+00
2.700000e+01 1.500000e+01 0.000000e+00
2.650000e+01 1.500000e+01 0.000000e+00
2.600000e+01 1.500000e+01 0.000000e+00
2.550000e+01 1.500000e+01 0.000000e+00
2.500000e+01 1.500000e+01 0.000000e+00
2.450000e+01 1.500000e+01 0.000000e+00
2.400000e+01 1.500000e+01 0.000000e+00
2.350000e+01 1.500000e+01 0.000000e+00
2.300000e+01 1.500000e+01 0.000000e+00
2.250000e+01 1.500000e+01 0.000000e+00
2.200000e+01 1.500000e+01 0.000000e+00
2.150000e+01 1.500000e+01 0.000000e+00
2.100000e+01 1.500000e+01 0.000000e+00
2.050000e+01 1.500000e+01 0.000000e+00
2.000000e+01 1.500000e+01 0.000000e+00
1.950000e+01 1.500000e+01 0.000000e+00
1.900000e+01 1.500000e+01 0.000000e+00
1.850000e+01 1.500000e+01 0.000000e+00
1.800000e+01 1.500000e+01 0.000000e+00
1.750000e+01 1.500000e+01 0.000000e+00
1.700000e+01 1.500000e+01 0.000000e+00
1.650000e+01 1.500000e+01 0.000000e+00
1.600000e+01 1.500000e+01 0.000000e+00
1.550000e+01 1.500000e+01 0.000000e+00
1.500000e+01 1.500000e+01 0.000000e+00
3.000000e+01 1.450000e+01 0.000000e+00
2.950000e+01 1.450000e+01 0.000000e+00
2.900000e+01 1.450000e+01 0.000000e+00
2.850000e+01 1.450000e+01 0.000000e+00
2.800000e+01 1.450000e+01 0.000000e+00
2.750000e+01 1.450000e+01 0.000000e+00
2.700000e+01 1.450000e+01 0.000000e+00
2.650000e+01 1.450000e+01 0.000000e+00
2.600000e+01 1.450000e+01 0.000000e+00
2.550000e+01 1.450000e+01 0.000000e+00
2.500000e+01 1.450000e+01 0.000000e+00
2.450000e+01 1.450000e+01 0.000000e+00
2.400000e+01 1.450000e+01 0.000000e+00
2.350000e+01 1.450000e+01 0.000000e+00
2.300000e+01 1.450000e+01 0.000000e+00
2.250000e+01 1.450000e+01 0.000000e+00
2.200000e+01 1.450000e+01 0.000000e+00
2.150000e+01 1.450000e+01 0.000000e+00
2.100000e+01 1.450000e+01 0.000000e+00
2.050000e+01 1.450000e+01 0.000000e+00
2.000000e+01 1.450000e+01 0.000000e+00
1.950000e+01 1.450000e+01 0.000000e+00
1.900000e+01 1.450000e+01 0.000000e+00
1.850000e+01 1.450000e+01 0.000000e+00
1.800000e+01 1.450000e+01 0.000000e+00
1.750000e+01 1.450000e+01 0.000000e+00
1.700000e+01 1.450000e+01 0.000000e+00
1.650000e+01 1.450000e+01 0.000000e+00
1.600000e+01 1.450000e+01 0.000000e+00
1.550000e+01 1.450000e+01 0.000000e+00
1.500000e+01 1.450000e+01 0.000000e+00
3.000000e+01 1.400000e+01 0.000000e+00
2.950000e+01 1.400000e+01 0.000000e+00
2.900000e+01 1.400000e+01 0.000000e+00
2.850000e+01 1.400000e+01 0.000000e+00
2.800000e+01 1.400000e+01 0.000000e+00
2.750000e+01 1.400000e+01 0.000000e+00
2.700000e+01 1.400000e+01 0.000000e+00
2.650000e+01 1.400000e+01 0.000000e+00
2.600000e+01 1.400000e+01 0.000000e+00
2.550000e+01 1.400000e+01 0.000000e+00
2.500000e+01 1.400000e+01 0.000000e+00
2.450000e+01 1.400000e+01 0.000000e+00
2.400000e+01 1.400000e+01 0.000000e+00
2.350000e+01 1.400000e+01 0.000000e+00
2.300000e+01 1.400000e+01 0.000000e+00
2.250000e+01 1.400000e+01 0.000000e+00
2.200000e+01 1.400000e+01 0.000000e+00
2.150000e+01 1.400000e+01 0.000000e+00
2.100000e+01 1.400000e+01 0.000000e+00
2.050000e+01 1.400000e+01 0.000000e+00
2.000000e+01 1.400000e+01 0.000000e+00
1.950000e+01 1.400000e+01 0.000000e+00
1.900000e+01 1.400000e+01 0.000000e+00
1.850000e+01 1.400000e+01 0.000000e+00
1.800000e+01 1.400000e+01 0.000000e+00
1.750000e+01 1.400000e+01 0.000000e+00
1.700000e+01 1.400000e+01 0.000000e+00
1.650000e+01 1.400000e+01 0.000000e+00
1.600000e+01 1.400000e+01 0.000000e+00
1.550000e+01 1.400000e+01 0.000000e+00
1.500000e+01 1.400000e+01 0.000000e+00
3.000000e+01 1.350000e+01 0.000000e+00
2.950000e+01 1.350000e+01 0.000000e+00
2.900000e+01 1.350000e+01 0.000000e+00
2.850000e+01 1.350000e+01 0.000000e+00
2.800000e+01 1.350000e+01 0.000000e+00
2.750000e+01 1.350000e+01 0.000000e+00
2.700000e+01 1.350000e+01 0.000000e+00
2.650000e+01 1.350000e+01 0.000000e+00
2.600000e+01 1.350000e+01 0.000000e+00
2.550000e+01 1.350000e+01 0.000000e+00
2.500000e+01 1.350000e+01 0.000000e+00
2.450000e+01 1.350000e+01 0.000000e+00
2.400000e+01 1.350000e+01 0.000000e+00
2.350000e+01 1.350000e+01 0.000000e+00
2.300000e+01 1.350000e+01 0.000000e+00
2.250000e+01 1.350000e+01 0.000000e+00
2.200000e+01 1.350000e+01 0.000000e+00
2.150000e+01 1.350000e+01 0.000000e+00
2.100000e+01 1.350000e+01 0.000000e+00
2.050000e+01 1.350000e+01 0.000000e+00
2.000000e+01 1.350000e+01 0.000000e+00
1.950000e+01 1.350000e+01 0.000000e+00
1.900000e+01 1.350000e+01 0.000000e+00
1.850000e+01 1.350000e+01 0.000000e+00
1.800000e+01 1.350000e+01 0.000000e+00
1.750000e+01 1.350000e+01 0.000000e+00
1.700000e+01 1.350000e+01 0.000000e+00
1.650000e+01 1.350000e+01 0.000000e+00
1.600000e+01 1.350000e+01 0.000000e+00
1.550000e+01 1.350000e+01 0.000000e+00
1.500000e+01 1.350000e+01 0.000000e+00
3.000000e+01 1.300000e+01 0.000000e+00
2.950000e+01 1.300000e+01 0.000000e+00
2.900000e+01 1.300000e+01 0.000000e+00
2.850000e+01 1.300000e+01 0.000000e+00
2.800000e+01 1.300000e+01 0.000000e+00
2.750000e+01 1.300000e+01 0.000000e+00
2.700000e+01 1.300000e+01 0.000000e+00
2.650000e+01 1.300000e+01 0.000000e+00
2.600000e+01 1.300000e+01 0.000000e+00
2.550000e+01 1.300000e+01 0.000000e+00
2.500000e+01 1.300000e+01 0.000000e+00
2.450000e+01 1.300000e+01 0.000000e+00
2.400000e+01 1.300000e+01 0.000000e+00
2.350000e+01 1.300000e+01 0.000000e+00
2.300000e+01 1.300000e+01 0.000000e+00
2.250000e+01 1.300000e+01 0.000000e+00
2.200000e+01 1.300000e+01 0.000000e+00
2.150000e+01 1.300000e+01 0.000000e+00
2.100000e+01 1.300000e+01 0.000000e+00
2.050000e+01 1.300000e+01 0.000000e+00
2.000000e+01 1.300000e+01 0.000000e+00
1.950000e+01 1.300000e+01 0.000000e+00
1.900000e+01 1.300000e+01 0.000000e+00
1.850000e+01 1.300000e+01 0.000000e+00
1.800000e+01 1.300000e+01 0.000000e+00
1.750000e+01 1.300000e+01 0.000000e+00
1.700000e+01 1.300000e+01 0.000000e+00
1.650000e+01 1.300000e+01 0.000000e+00
1.600000e+01 1.300000e+01 0.000000e+00
1.550000e+01 1.300000e+01 0.000000e+00
1.500000e+01 1.300000e+01 0.000000e+00
3.000000e+01 1.250000e+01 0.000000e+00
2.950000e+01 1.250000e+01 0.000000e+00
2.900000e+01 1.250000e+01 0.000000e+00
2.850000e+01 1.250000e+01 0.000000e+00
2.800000e+01 1.250000e+01 0.000000e+00
2.750000e+01 1.250000e+01 0.000000e+00
2.700000e+01 1.250000e+01 0.000000e+00
2.650000e+01 1.250000e+01 0.000000e+00
2.600000e+01 1.250000e+01 0.000000e+00
2.550000e+01 1.250000e+01 0.000000e+00
2.500000e+01 1.250000e+01 0.000000e+00
2.450000e+01 1.250000e+01 0.000000e+00
2.400000e+01 1.250000e+01 0.000000e+00
2.350000e+01 1.250000e+01 0.000000e+00
2.300000e+01 1.250000e+01 0.000000e+00
2.250000e+01 1.250000e+01 0.000000e+00
2.200000e+01 1.250000e+01 0.000000e+00
2.150000e+01 1.250000e+01 0.000000e+00
2.100000e+01 1.250000e+01 0.000000e+00
2.050000e+01 1.250000e+01 0.000000e+00
2.000000e+01 1.250000e+01 0.000000e+00
1.950000e+01 1.250000e+01 0.000000e+00
1.900000e+01 1.250000e+01 0.000000e+00
1.850000e+01 1.250000e+01 0.000000e+00
1.800000e+01 1.250000e+01 0.000000e+00
1.750000e+01 1.250000e+01 0.000000e+00
1.700000e+01 1.250000e+01 0.000000e+00
1.650000e+01 1.250000e+01 0.000000e+00
1.600000e+01 1.250000e+01 0.000000e+00
1.550000e+01 1.250000e+01 0.000000e+00
1.500000e+01 1.250000e+01 0.000000e+00
3.000000e+01 1.200000e+01 0.000000e+00
2.950000e+01 1.200000e+01 0.000000e+00
2.900000e+01 1.200000e+01 0.000000e+00
2.850000e+01 1.200000e+01 0.000000e+00
2.800000e+01 1.200000e+01 0.000000e+00
2.750000e+01 1.200000e+01 0.000000e+00
2.700000e+01 1.200000e+01 0.000000e+00
2.650000e+01 1.200000e+01 0.000000e+00
2.600000e+01 1.200000e+01 0.000000e+00
2.550000e+01 1.200000e+01 0.000000e+00
2.500000e+01 1.200000e+01 0.000000e+00
2.450000e+01 1.200000e+01 0.000000e+00
2.400000e+01 1.200000e+01 0.000000e+00
2.350000e+01 1.200000e+01 0.000000e+00
2.300000e+01 1.200000e+01 0.000000e+00
2.250000e+01 1.200000e+01 0.000000e+00
2.200000e+01 1.200000e+01 0.000000e+00
2.150000e+01 1.200000e+01 0.000000e+00
2.100000e+01 1.200000e+01 0.000000e+00
2.050000e+01 1.200000e+01 0.000000e+00
2.000000e+01 1.200000e+01 0.000000e+00
1.950000e+01 1.200000e+01 0.000000e+00
1.900000e+01 1.200000e+01 0.000000e+00
1.850000e+01 1.200000e+01 0.000000e+00
1.800000e+01 1.200000e+01 0.000000e+00
1.750000e+01 1.200000e+01 0.000000e+00
1.700000e+01 1.200000e+01 0.000000e+00
1.650000e+01 1.200000e+01 0.000000e+00
1.600000e+01 1.200000e+01 0.000000e+00
1.550000e+01 1.200000e+01 0.000000e+00
1.500000e+01 1.200000e+01 0.000000e+00
3.000000e+01 1.150000e+01 0.000000e+00
2.950000e+01 1.150000e+01 0.000000e+00
2.900000e+01 1.150000e+01 0.000000e+00
2.850000e+01 1.150000e+01 0.000000e+00
2.800000e+01 1.150000e+01 0.000000e+00
2.750000e+01 1.150000e+01 0.000000e+00
2.700000e+01 1.150000e+01 0.000000e+00
2.650000e+01 1.150000e+01 0.000000e+00
2.600000e+01 1.150000e+01 0.000000e+00
2.550000e+01 1.150000e+01 0.000000e+00
2.500000e+01 1.150000e+01 0.000000e+00
2.450000e+01 1.150000e+01 0.000000e+00
2.400000e+01 1.150000e+01 0.000000e+00
2.350000e+01 1.150000e+01 0.000000e+00
2.300000e+01 1.150000e+01 0.000000e+00
2.250000e+01 1.150000e+01 0.000000e+00
2.200000e+01 1.150000e+01 0.000000e+00
2.150000e+01 1.150000e+01 0.000000e+00
2.100000e+01 1.150000e+01 0.000000e+00
2.050000e+01 1.150000e+01 0.000000e+00
2.000000e+01 1.150000e+01 0.000000e+00
1.950000e+01 1.150000e+01 0.000000e+00
1.900000e+01 1.150000e+01 0.000000e+00
1.850000e+01 1.150000e+01 0.000000e+00
1.800000e+01 1.150000e+01 0.000000e+00
1.750000e+01 1.150000e+01 0.000000e+00
1.700000e+01 1.150000e+01 0.000000e+00
1.650000e+01 1.150000e+01 0.000000e+00
1.600000e+01 1.150000e+01 0.000000e+00
1.550000e+01 1.150000e+01 0.000000e+00
1.500000e+01 1.150000e+01 0.000000e+00
3.000000e+01 1.100000e+01 0.000000e+00
2.950000e+01 1.100000e+01 0.000000e+00
2.900000e+01 1.100000e+01 0.000000e+00
2.850000e+01 1.100000e+01 0.000000e+00
2.800000e+01 1.100000e+01 0.000000e+00
2.750000e+01 1.100000e+01 0.000000e+00
2.700000e+01 1.100000e+01 0.000000e+00
2.650000e+01 1.100000e+01 0.000000e+00
2.600000e+01 1.100000e+01 0.000000e+00
2.550000e+01 1.100000e+01 0.000000e+00
2.500000e+01 1.100000e+01 0.000000e+00
2.450000e+01 1.100000e+01 0.000000e+00
2.400000e+01 1.100000e+01 0.000000e+00
2.350000e+01 1.100000e+01 0.000000e+00
2.300000e+01 1.100000e+01 0.000000e+00
2.250000e+01 1.100000e+01 0.000000e+00
2.200000e+01 1.100000e+01 0.000000e+00
2.150000e+01 1.100000e+01 0.000000e+00
2.100000e+01 1.100000e+01 0.000000e+00
2.050000e+01 1.100000e+01 0.000000e+00
2.000000e+01 1.100000e+01 0.000000e+00
1.950000e+01 1.100000e+01 0.000000e+00
1.900000e+01 1.100000e+01 0.000000e+00
1.850000e+01 1.100000e+01 0.000000e+00
1.800000e+01 1.100000e+01 0.000000e+00
1.750000e+01 1.100000e+01 0.000000e+00
1.700000e+01 1.100000e+01 0.000000e+00
1.650000e+01 1.100000e+01 0.000000e+00
1.600000e+01 1.100000e+01 0.000000e+00
1.550000e+01 1.100000e+01 0.000000e+00
1.500000e+01 1.100000e+01 0.000000e+00
3.000000e+01 1.050000e+01 0.000000e+00
2.950000e+01 1.050000e+01 0.000000e+00
2.900000e+01 1.050000e+01 0.000000e+00
2.850000e+01 1.050000e+01 0.000000e+00
2.800000e+01 1.050000e+01 0.000000e+00
2.750000e+01 1.050000e+01 0.000000e+00
2.700000e+01 1.050000e+01 0.000000e+00
2.650000e+01 1.050000e+01 0.000000e+00
2.600000e+01 1.050000e+01 0.000000e+00
2.550000e+01 1.050000e+01 0.000000e+00
2.500000e+01 1.050000e+01 0.000000e+00
2.450000e+01 1.050000e+01 0.000000e+00
2.400000e+01 1.050000e+01 0.000000e+00
2.350000e+01 1.050000e+01 0.000000e+00
2.300000e+01 1.050000e+01 0.000000e+00
2.250000e+01 1.050000e+01 0.000000e+00
2.200000e+01 1.050000e+01 0.000000e+00
2.150000e+01 1.050000e+01 0.000000e+00
2.100000e+01 1.050000e+01 0.000000e+00
2.050000e+01 1.050000e+01 0.000000e+00
2.000000e+01 1.050000e+01 0.000000e+00
1.950000e+01 1.050000e+01 0.000000e+00
1.900000e+01 1.050000e+01 0.000000e+00
1.850000e+01 1.050000e+01 0.000000e+00
1.800000e+01 1.050000e+01 0.000000e+00
1.750000e+01 1.050000e+01 0.000000e+00
1.700000e+01 1.050000e+01 0.000000e+00
1.650000e+01 1.050000e+01 0.000000e+00
1.600000e+01 1.050000e+01 0.000000e+00
1.550000e+01 1.050000e+01 0.000000e+00
1.500000e+01 1.050000e+01 0.000000e+00
3.000000e+01 1.000000e+01 0.000000e+00
2.950000e+01 1.000000e+01 0.000000e+00
2.900000e+01 1.000000e+01 0.000000e+00
2.850000e+01 1.000000e+01 0.000000e+00
2.800000e+01 1.000000e+01 0.000000e+00
2.750000e+01 1.000000e+01 0.000000e+00
2.700000e+01 1.000000e+01 0.000000e+00
2.650000e+01 1.000000e+01 0.000000e+00
2.600000e+01 1.000000e+01 0.000000e+00
2.550000e+01 1.000000e+01 0.000000e+00
2.500000e+01 1.000000e+01 0.000000e+00
2.450000e+01 1.000000e+01 0.000000e+00
2.400000e+01 1.000000e+01 0.000000e+00
2.350000e+01 1.000000e+01 0.000000e+00
2.300000e+01 1.000000e+01 0.000000e+00
2.250000e+01 1.000000e+01 0.000000e+00
2.200000e+01 1.000000e+01 0.000000e+00
2.150000e+01 1.000000e+01 0.000000e+00
2.100000e+01 1.000000e+01 0.000000e+00
2.050000e+01 1.000000e+01 0.000000e+00
2.000000e+01 1.000000e+01 0.000000e+00
1.950000e+01 1.000000e+01 0.000000e+00
1.900000e+01 1.000000e+01 0.000000e+00
1.850000e+01 1.000000e+01 0.000000e+00
1.800000e+01 1.000000e+01 0.000000e+00
1.750000e+01 1.000000e+01 0.000000e+00
1.700000e+01 1.000000e+01 0.000000e+00
1.650000e+01 1.000000e+01 0.000000e+00
1.600000e+01 1.000000e+01 0.000000e+00
1.550000e+01 1.000000e+01 0.000000e+00
1.500000e+01 1.000000e+01 0.000000e+00
3.000000e+01 9.500000e+00 0.000000e+00
2.950000e+01 9.500000e+00 0.000000e+00
2.900000e+01 9.500000e+00 0.000000e+00
2.850000e+01 9.500000e+00 0.000000e+00
2.800000e+01 9.500000e+00 0.000000e+00
2.750000e+01 9.500000e+00 0.000000e+00
2.700000e+01 9.500000e+00 0.000000e+00
2.650000e+01 9.500000e+00 0.000000e+00
2.600000e+01 9.500000e+00 0.000000e+00
2.550000e+01 9.500000e+00 0.000000e+00
2.500000e+01 9.500000e+00 0.000000e+00
2.450000e+01 9.500000e+00 0.000000e+00
2.400000e+01 9.500000e+00 0.000000e+00
2.350000e+01 9.500000e+00 0.000000e+00
2.300000e+01 9.500000e+00 0.000000e+00
2.250000e+01 9.500000e+00 0.000000e+00
2.200000e+01 9.500000e+00 0.000000e+00
2.150000e+01 9.500000e+00 0.000000e+00
2.100000e+01 9.500000e+00 0.000000e+00
2.050000e+01 9.500000e+00 0.000000e+00
2.000000e+01 9.500000e+00 0.000000e+00
1.950000e+01 9.500000e+00 0.000000e+00
1.900000e+01 9.500000e+00 0.000000e+00
1.850000e+01 9.500000e+00 0.000000e+00
1.800000e+01 9.500000e+00 0.000000e+00
1.750000e+01 9.500000e+00 0.000000e+00
1.700000e+01 9.500000e+00 0.000000e+00
1.650000e+01 9.500000e+00 0.000000e+00
1.600000e+01 9.500000e+00 0.000000e+00
1.550000e+01 9.500000e+00 0.000000e+00
1.500000e+01 9.500000e+00 0.000000e+00
3.000000e+01 9.000000e+00 0.000000e+00
2.950000e+01 9.000000e+00 0.000000e+00
2.900000e+01 9.000000e+00 0.000000e+00
2.850000e+01 9.000000e+00 0.000000e+00
2.800000e+01 9.000000e+00 0.000000e+00
2.750000e+01 9.000000e+00 0.000000e+00
2.700000e+01 9.000000e+00 0.000000e+00
2.650000e+01 9.000000e+00 0.000000e+00
2.600000e+01 9.000000e+00 0.000000e+00
2.550000e+01 9.000000e+00 0.000000e+00
2.500000e+01 9.000000e+00 0.000000e+00
2.450000e+01 9.000000e+00 0.000000e+00
2.400000e+01 9.000000e+00 0.000000e+00
2.350000e+01 9.000000e+00 0.000000e+00
2.300000e+01 9.000000e+00 0.000000e+00
2.250000e+01 9.000000e+00 0.000000e+00
2.200000e+01 9.000000e+00 0.000000e+00
2.150000e+01 9.000000e+00 0.000000e+00
2.100000e+01 9.000000e+00 0.000000e+00
2.050000e+01 9.000000e+00 0.000000e+00
2.000000e+01 9.000000e+00 0.000000e+00
1.950000e+01 9.000000e+00 0.000000e+00
1.900000e+01 9.000000e+00 0.000000e+00
1.850000e+01 9.000000e+00 0.000000e+00
1.800000e+01 9.000000e+00 0.000000e+00
1.750000e+01 9.000000e+00 0.000000e+00
1.700000e+01 9.000000e+00 0.000000e+00
1.650000e+01 9.000000e+00 0.000000e+00
1.600000e+01 9.000000e+00 0.000000e+00
1.550000e+01 9.000000e+00 0.000000e+00
1.500000e+01 9.000000e+00 0.000000e+00
3.000000e+01 8.500000e+00 0.000000e+00
2.950000e+01 8.500000e+00 0.000000e+00
2.900000e+01 8.500000e+00 0.000000e+00
2.850000e+01 8.500000e+00 0.000000e+00
2.800000e+01 8.500000e+00 0.000000e+00
2.750000e+01 8.500000e+00 0.000000e+00
2.700000e+01 8.500000e+00 0.000000e+00
2.650000e+01 8.500000e+00 0.000000e+00
2.600000e+01 8.500000e+00 0.000000e+00
2.550000e+01 8.500000e+00 0.000000e+00
2.500000e+01 8.500000e+00 0.000000e+00
2.450000e+01 8.500000e+00 0.000000e+00
2.400000e+01 8.500000e+00 0.000000e+00
2.350000e+01 8.500000e+00 0.000000e+00
2.300000e+01 8.500000e+00 0.000000e+00
2.250000e+01 8.500000e+00 0.000000e+00
2.200000e+01 8.500000e+00 0.000000e+00
2.150000e+01 8.500000e+00 0.000000e+00
2.100000e+01 8.500000e+00 0.000000e+00
2.050000e+01 8.500000e+00 0.000000e+00
2.000000e+01 8.500000e+00 0.000000e+00
1.950000e+01 8.500000e+00 0.000000e+00
1.900000e+01 8.500000e+00 0.000000e+00
1.850000e+01 8.500000e+00 0.000000e+00
1.800000e+01 8.500000e+00 0.000000e+00
1.750000e+01 8.500000e+00 0.000000e+00
1.700000e+01 8.500000e+00 0.000000e+00
1.650000e+01 8.500000e+00 0.000000e+00
1.600000e+01 8.500000e+00 0.000000e+00
1.550000e+01 8.500000e+00 0.000000e+00
1.500000e+01 8.500000e+00 0.000000e+00
3.000000e+01 8.000000e+00 0.000000e+00
2.950000e+01 8.000000e+00 0.000000e+00
2.900000e+01 8.000000e+00 0.000000e+00
2.850000e+01 8.000000e+00 0.000000e+00
2.800000e+01 8.000000e+00 0.000000e+00
2.750000e+01 8.000000e+00 0.000000e+00
2.700000e+01 8.000000e+00 0.000000e+00
2.650000e+01 8.000000e+00 0.000000e+00
2.600000e+01 8.000000e+00 0.000000e+00
2.550000e+01 8.000000e+00 0.000000e+00
2.500000e+01 8.000000e+00 0.000000e+00
2.450000e+01 8.000000e+00 0.000000e+00
2.400000e+01 8.000000e+00 0.000000e+00
2.350000e+01 8.000000e+00 0.000000e+00
2.300000e+01 8.000000e+00 0.000000e+00
2.250000e+01 8.000000e+00 0.000000e+00
2.200000e+01 8.000000e+00 0.000000e+00
2.150000e+01 8.000000e+00 0.000000e+00
2.100000e+01 8.000000e+00 0.000000e+00
2.050000e+01 8.000000e+00 0.000000e+00
2.000000e+01 8.000000e+00 0.000000e+00
1.950000e+01 8.000000e+00 0.000000e+00
1.900000e+01 8.000000e+00 0.000000e+00
1.850000e+01 8.000000e+00 0.000000e+00
1.800000e+01 8.000000e+00 0.000000e+00
1.750000e+01 8.000000e+00 0.000000e+00
1.700000e+01 8.000000e+00 0.000000e+00
1.650000e+01 8.000000e+00 0.000000e+00
1.600000e+01 8.000000e+00 0.000000e+00
1.550000e+01 8.000000e+00 0.000000e+00
1.500000e+01 8.000000e+00 0.000000e+00
3.000000e+01 7.500000e+00 0.000000e+00
2.950000e+01 7.500000e+00 0.000000e+00
2.900000e+01 7.500000e+00 0.000000e+00
2.850000e+01 7.500000e+00 0.000000e+00
2.800000e+01 7.500000e+00 0.000000e+00
2.750000e+01 7.500000e+00 0.000000e+00
2.700000e+01 7.500000e+00 0.000000e+00
2.650000e+01 7.500000e+00 0.000000e+00
2.600000e+01 7.500000e+00 0.000000e+00
2.550000e+01 7.500000e+00 0.000000e+00
2.500000e+01 7.500000e+00 0.000000e+00
2.450000e+01 7.500000e+00 0.000000e+00
2.400000e+01 7.500000e+00 0.000000e+00
2.350000e+01 7.500000e+00 0.000000e+00
2.300000e+01 7.500000e+00 0.000000e+00
2.250000e+01 7.500000e+00 0.000000e+00
2.200000e+01 7.500000e+00 0.000000e+00
2.150000e+01 7.500000e+00 0.000000e+00
2.100000e+01 7.500000e+00 0.000000e+00
2.050000e+01 7.500000e+00 0.000000e+00
2.000000e+01 7.500000e+00 0.000000e+00
1.950000e+01 7.500000e+00 0.000000e+00
1.900000e+01 7.500000e+00 0.000000e+00
1.850000e+01 7.500000e+00 0.000000e+00
1.800000e+01 7.500000e+00 0.000000e+00
1.750000e+01 7.500000e+00 0.000000e+00
1.700000e+01 7.500000e+00 0.000000e+00
1.650000e+01 7.500000e+00 0.000000e+00
1.600000e+01 7.500000e+00 0.000000e+00
1.550000e+01 7.500000e+00 0.000000e+00
1.500000e+01 7.500000e+00 0.000000e+00
3.000000e+01 7.000000e+00 0.000000e+00
2.950000e+01 7.000000e+00 0.000000e+00
2.900000e+01 7.000000e+00 0.000000e+00
2.850000e+01 7.000000e+00 0.000000e+00
2.800000e+01 7.000000e+00 0.000000e+00
2.750000e+01 7.000000e+00 0.000000e+00
2.700000e+01 7.000000e+00 0.000000e+00
2.650000e+01 7.000000e+00 0.000000e+00
2.600000e+01 7.000000e+00 0.000000e+00
2.550000e+01 7.000000e+00 0.000000e+00
2.500000e+01 7.000000e+00 0.000000e+00
2.450000e+01 7.000000e+00 0.000000e+00
2.400000e+01 7.000000e+00 0.000000e+00
2.350000e+01 7.000000e+00 0.000000e+00
2.300000e+01 7.000000e+00 0.000000e+00
2.250000e+01 7.000000e+00 0.000000e+00
2.200000e+01 7.000000e+00 0.000000e+00
2.150000e+01 7.000000e+00 0.000000e+00
2.100000e+01 7.000000e+00 0.000000e+00
2.050000e+01 7.000000e+00 0.000000e+00
2.000000e+01 7.000000e+00 0.000000e+00
1.950000e+01 7.000000e+00 0.000000e+00
1.900000e+01 7.000000e+00 0.000000e+00
1.850000e+01 7.000000e+00 0.000000e+00
1.800000e+01 7.000000e+00 0.000000e+00
1.750000e+01 7.000000e+00 0.000000e+00
1.700000e+01 7.000000e+00 0.000000e+00
1.650000e+01 7.000000e+00 0.000000e+00
1.600000e+01 7.000000e+00 0.000000e+00
1.550000e+01 7.000000e+00 0.000000e+00
1.500000e+01 7.000000e+00 0.000000e+00
3.000000e+01 6.500000e+00 0.000000e+00
2.950000e+01 6.500000e+00 0.000000e+00
2.900000e+01 6.500000e+00 0.000000e+00
2.850000e+01 6.500000e+00 0.000000e+00
2.800000e+01 6.500000e+00 0.000000e+00
2.750000e+01 6.500000e+00 0.000000e+00
2.700000e+01 6.500000e+00 0.000000e+00
2.650000e+01 6.500000e+00 0.000000e+00
2.600000e+01 6.500000e+00 0.000000e+00
2.550000e+01 6.500000e+00 0.000000e+00
2.500000e+01 6.500000e+00 0.000000e+00
2.450000e+01 6.500000e+00 0.000000e+00
2.400000e+01 6.500000e+00 0.000000e+00
2.350000e+01 6.500000e+00 0.000000e+00
2.300000e+01 6.500000e+00 0.000000e+00
2.250000e+01 6.500000e+00 0.000000e+00
2.200000e+01 6.500000e+00 0.000000e+00
2.150000e+01 6.500000e+00 0.000000e+00
2.100000e+01 6.500000e+00 0.000000e+00
2.050000e+01 6.500000e+00 0.000000e+00
2.000000e+01 6.500000e+00 0.000000e+00
1.950000e+01 6.500000e+00 0.000000e+00
1.900000e+01 6.500000e+00 0.000000e+00
1.850000e+01 6.500000e+00 0.000000e+00
1.800000e+01 6.500000e+00 0.000000e+00
1.750000e+01 6.500000e+00 0.000000e+00
1.700000e+01 6.500000e+00 0.000000e+00
1.650000e+01 6.500000e+00 0.000000e+00
1.600000e+01 6.500000e+00 0.000000e+00
1.550000e+01 6.500000e+00 0.000000e+00
1.500000e+01 6.500000e+00 0.000000e+00
3.000000e+01 6.000000e+00 0.000000e+00
2.950000e+01 6.000000e+00 0.000000e+00
2.900000e+01 6.000000e+00 0.000000e+00
2.850000e+01 6.000000e+00 0.000000e+00
2.800000e+01 6.000000e+00 0.000000e+00
2.750000e+01 6.000000e+00 0.000000e+00
2.700000e+01 6.000000e+00 0.000000e+00
2.650000e+01 6.000000e+00 0.000000e+00
2.600000e+01 6.000000e+00 0.000000e+00
2.550000e+01 6.000000e+00 0.000000e+00
2.500000e+01 6.000000e+00 0.000000e+00
2.450000e+01 6.000000e+00 0.000000e+00
2.400000e+01 6.000000e+00 0.000000e+00
2.350000e+01 6.000000e+00 0.000000e+00
2.300000e+01 6.000000e+00 0.000000e+00
2.250000e+01 6.000000e+00 0.000000e+00
2.200000e+01 6.000000e+00 0.000000e+00
2.150000e+01 6.000000e+00 0.000000e+00
2.100000e+01 6.000000e+00 0.000000e+00
2.050000e+01 6.000000e+00 0.000000e+00
2.000000e+01 6.000000e+00 0.000000e+00
1.950000e+01 6.000000e+00 0.000000e+00
1.900000e+01 6.000000e+00 0.000000e+00
1.850000e+01 6.000000e+00 0.000000e+00
1.800000e+01 6.000000e+00 0.000000e+00
1.750000e+01 6.000000e+00 0.000000e+00
1.700000e+01 6.000000e+00 0.000000e+00
1.650000e+01 6.000000e+00 0.000000e+00
1.600000e+01 6.000000e+00 0.000000e+00
1.550000e+01 6.000000e+00 0.000000e+00
1.500000e+01 6.000000e+00 0.000000e+00
3.000000e+01 5.500000e+00 0.000000e+00
2.950000e+01 5.500000e+00 0.000000e+00
2.900000e+01 5.500000e+00 0.000000e+00
2.850000e+01 5.500000e+00 0.000000e+00
2.800000e+01 5.500000e+00 0.000000e+00
2.750000e+01 5.500000e+00 0.000000e+00
2.700000e+01 5.500000e+00 0.000000e+00
2.650000e+01 5.500000e+00 0.000000e+00
2.600000e+01 5.500000e+00 0.000000e+00
2.550000e+01 5.500000e+00 0.000000e+00
2.500000e+01 5.500000e+00 0.000000e+00
2.450000e+01 5.500000e+00 0.000000e+00
2.400000e+01 5.500000e+00 0.000000e+00
2.350000e+01 5.500000e+00 0.000000e+00
2.300000e+01 5.500000e+00 0.000000e+00
2.250000e+01 5.500000e+00 0.000000e+00
2.200000e+01 5.500000e+00 0.000000e+00
2.150000e+01 5.500000e+00 0.000000e+00
2.100000e+01 5.500000e+00 0.000000e+00
2.050000e+01 5.500000e+00 0.000000e+00
2.000000e+01 5.500000e+00 0.000000e+00
1.950000e+01 5.500000e+00 0.000000e+00
1.900000e+01 5.500000e+00 0.000000e+00
1.850000e+01 5.500000e+00 0.000000e+00
1.800000e+01 5.500000e+00 0.000000e+00
1.750000e+01 5.500000e+00 0.000000e+00
1.700000e+01 5.500000e+00 0.000000e+00
1.650000e+01 5.500000e+00 0.000000e+00
1.600000e+01 5.500000e+00 0.000000e+00
1.550000e+01 5.500000e+00 0.000000e+00
1.500000e+01 5.500000e+00 0.000000e+00
3.000000e+01 5.000000e+00 0.000000e+00
2.950000e+01 5.000000e+00 0.000000e+00
2.900000e+01 5.000000e+00 0.000000e+00
2.850000e+01 5.000000e+00 0.000000e+00
2.800000e+01 5.000000e+00 0.000000e+00
2.750000e+01 5.000000e+00 0.000000e+00
2.700000e+01 5.000000e+00 0.000000e+00
2.650000e+01 5.000000e+00 0.000000e+00
2.600000e+01 5.000000e+00 0.000000e+00
2.550000e+01 5.000000e+00 0.000000e+00
2.500000e+01 5.000000e+00 0.000000e+00
2.450000e+01 5.000000e+00 0.000000e+00
2.400000e+01 5.000000e+00 0.000000e+00
2.350000e+01 5.000000e+00 0.000000e+00
2.300000e+01 5.000000e+00 0.000000e+00
2.250000e+01 5.000000e+00 0.000000e+00
2.200000e+01 5.000000e+00 0.000000e+00
2.150000e+01 5.000000e+00 0.000000e+00
2.100000e+01 5.000000e+00 0.000000e+00
2.050000e+01 5.000000e+00 0.000000e+00
2.000000e+01 5.000000e+00 0.000000e+00
1.950000e+01 5.000000e+00 0.000000e+00
1.900000e+01 5.000000e+00 0.000000e+00
1.850000e+01 5.000000e+00 0.000000e+00
1.800000e+01 5.000000e+00 0.000000e+00
1.750000e+01 5.000000e+00 0.000000e+00
1.700000e+01 5.000000e+00 0.000000e+00
1.650000e+01 5.000000e+00 0.000000e+00
1.600000e+01 5.000000e+00 0.000000e+00
1.550000e+01 5.000000e+00 0.000000e+00
1.500000e+01 5.000000e+00 0.000000e+00
3.000000e+01 4.500000e+00 0.000000e+00
2.950000e+01 4.500000e+00 0.000000e+00
2.900000e+01 4.500000e+00 0.000000e+00
2.850000e+01 4.500000e+00 0.000000e+00
2.800000e+01 4.500000e+00 0.000000e+00
2.750000e+01 4.500000e+00 0.000000e+00
2.700000e+01 4.500000e+00 0.000000e+00
2.650000e+01 4.500000e+00 0.000000e+00
2.600000e+01 4.500000e+00 0.000000e+00
2.550000e+01 4.500000e+00 0.000000e+00
2.500000e+01 4.500000e+00 0.000000e+00
2.450000e+01 4.500000e+00 0.000000e+00
2.400000e+01 4.500000e+00 0.000000e+00
2.350000e+01 4.500000e+00 0.000000e+00
2.300000e+01 4.500000e+00 0.000000e+00
2.250000e+01 4.500000e+00 0.000000e+00
2.200000e+01 4.500000e+00 0.000000e+00
2.150000e+01 4.500000e+00 0.000000e+00
2.100000e+01 4.500000e+00 0.000000e+00
2.050000e+01 4.500000e+00 0.000000e+00
2.000000e+01 4.500000e+00 0.000000e+00
1.950000e+01 4.500000e+00 0.000000e+00
1.900000e+01 4.500000e+00 0.000000e+00
1.850000e+01 4.500000e+00 0.000000e+00
1.800000e+01 4.500000e+00 0.000000e+00
1.750000e+01 4.500000e+00 0.000000e+00
1.700000e+01 4.500000e+00 0.000000e+00
1.650000e+01 4.500000e+00 0.000000e+00
1.600000e+01 4.500000e+00 0.000000e+00
1.550000e+01 4.500000e+00 0.000000e+00
1.500000e+01 4.500000e+00 0.000000e+00
3.000000e+01 4.000000e+00 0.000000e+00
2.950000e+01 4.000000e+00 0.000000e+00
2.900000e+01 4.000000e+00 0.000000e+00
2.850000e+01 4.000000e+00 0.000000e+00
2.800000e+01 4.000000e+00 0.000000e+00
2.750000e+01 4.000000e+00 0.000000e+00
2.700000e+01 4.000000e+00 0.000000e+00
2.650000e+01 4.000000e+00 0.000000e+00
2.600000e+01 4.000000e+00 0.000000e+00
2.550000e+01 4.000000e+00 0.000000e+00
2.500000e+01 4.000000e+00 0.000000e+00
2.450000e+01 4.000000e+00 0.000000e+00
2.400000e+01 4.000000e+00 0.000000e+00
2.350000e+01 4.000000e+00 0.000000e+00
2.300000e+01 4.000000e+00 0.000000e+00
2.250000e+01 4.000000e+00 0.000000e+00
2.200000e+01 4.000000e+00 0.000000e+00
2.150000e+01 4.000000e+00 0.000000e+00
2.100000e+01 4.000000e+00 0.000000e+00
2.050000e+01 4.000000e+00 0.000000e+00
2.000000e+01 4.000000e+00 0.000000e+00
1.950000e+01 4.000000e+00 0.000000e+00
1.900000e+01 4.000000e+00 0.000000e+00
1.850000e+01 4.000000e+00 0.000000e+00
1.800000e+01 4.000000e+00 0.000000e+00
1.750000e+01 4.000000e+00 0.000000e+00
1.700000e+01 4.000000e+00 0.000000e+00
1.650000e+01 4.000000e+00 0.000000e+00
1.600000e+01 4.000000e+00 0.000000e+00
1.550000e+01 4.000000e+00 0.000000e+00
1.500000e+01 4.000000e+00 0.000000e+00
3.000000e+01 3.500000e+00 0.000000e+00
2.950000e+01 3.500000e+00 0.000000e+00
2.900000e+01 3.500000e+00 0.000000e+00
2.850000e+01 3.500000e+00 0.000000e+00
2.800000e+01 3.500000e+00 0.000000e+00
2.750000e+01 3.500000e+00 0.000000e+00
2.700000e+01 3.500000e+00 0.000000e+00
2.650000e+01 3.500000e+00 0.000000e+00
2.600000e+01 3.500000e+00 0.000000e+00
2.550000e+01 3.500000e+00 0.000000e+00
2.500000e+01 3.500000e+00 0.000000e+00
2.450000e+01 3.500000e+00 0.000000e+00
2.400000e+01 3.500000e+00 0.000000e+00
2.350000e+01 3.500000e+00 0.000000e+00
2.300000e+01 3.500000e+00 0.000000e+00
2.250000e+01 3.500000e+00 0.000000e+00
2.200000e+01 3.500000e+00 0.000000e+00
2.150000e+01 3.500000e+00 0.000000e+00
2.100000e+01 3.500000e+00 0.000000e+00
2.050000e+01 3.500000e+00 0.000000e+00
2.000000e+01 3.500000e+00 0.000000e+00
1.950000e+01 3.500000e+00 0.000000e+00
1.900000e+01 3.500000e+00 0.000000e+00
1.850000e+01 3.500000e+00 0.000000e+00
1.800000e+01 3.500000e+00 0.000000e+00
1.750000e+01 3.500000e+00 0.000000e+00
1.700000e+01 3.500000e+00 0.000000e+00
1.650000e+01 3.500000e+00 0.000000e+00
1.600000e+01 3.500000e+00 0.000000e+00
1.550000e+01 3.500000e+00 0.000000e+00
1.500000e+01 3.500000e+00 0.000000e+00
3.000000e+01 3.000000e+00 0.000000e+00
2.950000e+01 3.000000e+00 0.000000e+00
2.900000e+01 3.000000e+00 0.000000e+00
2.850000e+01 3.000000e+00 0.000000e+00
2.800000e+01 3.000000e+00 0.000000e+00
2.750000e+01 3.000000e+00 0.000000e+00
2.700000e+01 3.000000e+00 0.000000e+00
2.650000e+01 3.000000e+00 0.000000e+00
2.600000e+01 3.000000e+00 0.000000e+00
2.550000e+01 3.000000e+00 0.000000e+00
2.500000e+01 3.000000e+00 0.000000e+00
2.450000e+01 3.000000e+00 0.000000e+00
2.400000e+01 3.000000e+00 0.000000e+00
2.350000e+01 3.000000e+00 0.000000e+00
2.300000e+01 3.000000e+00 0.000000e+00
2.250000e+01 3.000000e+00 0.000000e+00
2.200000e+01 3.000000e+00 0.000000e+00
2.150000e+01 3.000000e+00 0.000000e+00
2.100000e+01 3.000000e+00 0.000000e+00
2.050000e+01 3.000000e+00 0.000000e+00
2.000000e+01 3.000000e+00 0.000000e+00
1.950000e+01 3.000000e+00 0.000000e+00
1.900000e+01 3.000000e+00 0.000000e+00
1.850000e+01 3.000000e+00 0.000000e+00
1.800000e+01 3.000000e+00 0.000000e+00
1.750000e+01 3.000000e+00 0.000000e+00
1.700000e+01 3.000000e+00 0.000000e+00
1.650000e+01 3.000000e+00 0.000000e+00
1.600000e+01 3.000000e+00 0.000000e+00
1.550000e+01 3.000000e+00 0.000000e+00
1.500000e+01 3.000000e+00 0.000000e+00
3.000000e+01 2.500000e+00 0.000000e+00
2.950000e+01 2.500000e+00 0.000000e+00
2.900000e+01 2.500000e+00 0.000000e+00
2.850000e+01 2.500000e+00 0.000000e+00
2.800000e+01 2.500000e+00 0.000000e+00
2.750000e+01 2.500000e+00 0.000000e+00
2.700000e+01 2.500000e+00 0.000000e+00
2.650000e+01 2.500000e+00 0.000000e+00
2.600000e+01 2.500000e+00 0.000000e+00
2.550000e+01 2.500000e+00 0.000000e+00
2.500000e+01 2.500000e+00 0.000000e+00
2.450000e+01 2.500000e+00 0.000000e+00
2.400000e+01 2.500000e+00 0.000000e+00
2.350000e+01 2.500000e+00 0.000000e+00
2.300000e+01 2.500000e+00 0.000000e+00
2.250000e+01 2.500000e+00 0.000000e+00
2.200000e+01 2.500000e+00 0.000000e+00
2.150000e+01 2.500000e+00 0.000000e+00
2.100000e+01 2.500000e+00 0.000000e+00
2.050000e+01 2.500000e+00 0.000000e+00
2.000000e+01 2.500000e+00 0.000000e+00
1.950000e+01 2.500000e+00 0.000000e+00
1.900000e+01 2.500000e+00 0.000000e+00
1.850000e+01 2.500000e+00 0.000000e+00
1.800000e+01 2.500000e+00 0.000000e+00
1.750000e+01 2.500000e+00 0.000000e+00
1.700000e+01 2.500000e+00 0.000000e+00
1.650000e+01 2.500000e+00 0.000000e+00
1.600000e+01 2.500000e+00 0.000000e+00
1.550000e+01 2.500000e+00 0.000000e+00
1.500000e+01 2.500000e+00 0.000000e+00
3.000000e+01 2.000000e+00 0.000000e+00
2.950000e+01 2.000000e+00 0.000000e+00
2.900000e+01 2.000000e+00 0.000000e+00
2.850000e+01 2.000000e+00 0.000000e+00
2.800000e+01 2.000000e+00 0.000000e+00
2.750000e+01 2.000000e+00 0.000000e+00
2.700000e+01 2.000000e+00 0.000000e+00
2.650000e+01 2.000000e+00 0.000000e+00
2.600000e+01 2.000000e+00 0.000000e+00
2.550000e+01 2.000000e+00 0.000000e+00
2.500000e+01 2.000000e+00 0.000000e+00
2.450000e+01 2.000000e+00 0.000000e+00
2.400000e+01 2.000000e+00 0.000000e+00
2.350000e+01 2.000000e+00 0.000000e+00
2.300000e+01 2.000000e+00 0.000000e+00
2.250000e+01 2.000000e+00 0.000000e+00
2.200000e+01 2.000000e+00 0.000000e+00
2.150000e+01 2.000000e+00 0.000000e+00
2.100000e+01 2.000000e+00 0.000000e+00
2.050000e+01 2.000000e+00 0.000000e+00
2.000000e+01 2.000000e+00 0.000000e+00
1.950000e+01 2.000000e+00 0.000000e+00
1.900000e+01 2.000000e+00 0.000000e+00
1.850000e+01 2.000000e+00 0.000000e+00
1.800000e+01 2.000000e+00 0.000000e+00
1.750000e+01 2.000000e+00 0.000000e+00
1.700000e+01 2.000000e+00 0.000000e+00
1.650000e+01 2.000000e+00 0.000000e+00
1.600000e+01 2.000000e+00 0.000000e+00
1.550000e+01 2.000000e+00 0.000000e+00
1.500000e+01 2.000000e+00 0.000000e+00
3.000000e+01 1.500000e+00 0.000000e+00
2.950000e+01 1.500000e+00 0.000000e+00
2.900000e+01 1.500000e+00 0.000000e+00
2.850000e+01 1.500000e+00 0.000000e+00
2.800000e+01 1.500000e+00 0.000000e+00
2.750000e+01 1.500000e+00 0.000000e+00
2.700000e+01 1.500000e+00 0.000000e+00
2.650000e+01 1.500000e+00 0.000000e+00
2.600000e+01 1.500000e+00 0.000000e+00
2.550000e+01 1.500000e+00 0.000000e+00
2.500000e+01 1.500000e+00 0.000000e+00
2.450000e+01 1.500000e+00 0.000000e+00
2.400000e+01 1.500000e+00 0.000000e+00
2.350000e+01 1.500000e+00 0.000000e+00
2.300000e+01 1.500000e+00 0.000000e+00
2.250000e+01 1.500000e+00 0.000000e+00
2.200000e+01 1.500000e+00 0.000000e+00
2.150000e+01 1.500000e+00 0.000000e+00
2.100000e+01 1.500000e+00 0.000000e+00
2.050000e+01 1.500000e+00 0.000000e+00
2.000000e+01 1.500000e+00 0.000000e+00
1.950000e+01 1.500000e+00 0.000000e+00
1.900000e+01 1.500000e+00 0.000000e+00
1.850000e+01 1.500000e+00 0.000000e+00
1.800000e+01 1.500000e+00 0.000000e+00
1.750000e+01 1.500000e+00 0.000000e+00
1.700000e+01 1.500000e+00 0.000000e+00
1.650000e+01 1.500000e+00 0.000000e+00
1.600000e+01 1.500000e+00 0.000000e+00
1.550000e+01 1.500000e+00 0.000000e+00
1.500000e+01 1.500000e+00 0.000000e+00
3.000000e+01 1.000000e+00 0.000000e+00
2.950000e+01 1.000000e+00 0.000000e+00
2.900000e+01 1.000000e+00 0.000000e+00
2.850000e+01 1.000000e+00 0.000000e+00
2.800000e+01 1.000000e+00 0.000000e+00
2.750000e+01 1.000000e+00 0.000000e+00
2.700000e+01 1.000000e+00 0.000000e+00
2.650000e+01 1.000000e+00 0.000000e+00
2.600000e+01 1.000000e+00 0.000000e+00
2.550000e+01 1.000000e+00 0.000000e+00
2.500000e+01 1.000000e+00 0.000000e+00
2.450000e+01 1.000000e+00 0.000000e+00
2.400000e+01 1.000000e+00 0.000000e+00
2.350000e+01 1.000000e+00 0.000000e+00
2.300000e+01 1.000000e+00 0.000000e+00
2.250000e+01 1.000000e+00 0.000000e+00
2.200000e+01 1.000000e+00 0.000000e+00
2.150000e+01 1.000000e+00 0.000000e+00
2.100000e+01 1.000000e+00 0.000000e+00
2.050000e+01 1.000000e+00 0.000000e+00
2.000000e+01 1.000000e+00 0.000000e+00
1.950000e+01 1.000000e+00 0.000000e+00
1.900000e+01 1.000000e+00 0.000000e+00
1.850000e+01 1.000000e+00 0.000000e+00
1.800000e+01 1.000000e+00 0.000000e+00
1.750000e+01 1.000000e+00 0.000000e+00
1.700000e+01 1.000000e+00 0.000000e+00
1.650000e+01 1.000000e+00 0.000000e+00
1.600000e+01 1.000000e+00 0.000000e+00
1.550000e+01 1.000000e+00 0.000000e+00
1.500000e+01 1.000000e+00 0.000000e+00
3.000000e+01 5.000000e-01 0.000000e+00
2.950000e+01 5.000000e-01 0.000000e+00
2.900000e+01 5.000000e-01 0.000000e+00
2.850000e+01 5.000000e-01 0.000000e+00
2.800000e+01 5.000000e-01 0.000000e+00
2.750000e+01 5.000000e-01 0.000000e+00
2.700000e+01 5.000000e-01 0.000000e+00
2.650000e+01 5.000000e-01 0.000000e+00
2.600000e+01 5.000000e-01 0.000000e+00
2.550000e+01 5.000000e-01 0.000000e+00
2.500000e+01 5.000000e-01 0.000000e+00
2.450000e+01 5.000000e-01 0.000000e+00
2.400000e+01 5.000000e-01 0.000000e+00
2.350000e+01 5.000000e-01 0.000000e+00
2.300000e+01 5.000000e-01 0.000000e+00
2.250000e+01 5.000000e-01 0.000000e+00
2.200000e+01 5.000000e-01 0.000000e+00
2.150000e+01 5.000000e-01 0.000000e+00
2.100000e+01 5.000000e-01 0.000000e+00
2.050000e+01 5.000000e-01 0.000000e+00
2.000000e+01 5.000000e-01 0.000000e+00
1.950000e+01 5.000000e-01 0.000000e+00
1.900000e+01 5.000000e-01 0.000000e+00
1.850000e+01 5.000000e-01 0.000000e+00
1.800000e+01 5.000000e-01 0.000000e+00
1.750000e+01 5.000000e-01 0.000000e+00
1.700000e+01 5.000000e-01 0.000000e+00
1.650000e+01 5.000000e-01 0.000000e+00
1.600000e+01 5.000000e-01 0.000000e+00
1.550000e+01 5.000000e-01 0.000000e+00
1.500000e+01 5.000000e-01 0.000000e+00
3.000000e+01 0.000000e+00 0.000000e+00
2.950000e+01 0.000000e+00 0.000000e+00
2.900000e+01 0.000000e+00 0.000000e+00
2.850000e+01 0.000000e+00 0.000000e+00
2.800000e+01 0.000000e+00 0.000000e+00
2.750000e+01 0.000000e+00 0.000000e+00
2.700000e+01 0.000000e+00 0.000000e+00
2.650000e+01 0.000000e+00 0.000000e+00
2.600000e+01 0.000000e+00 0.000000e+00
2.550000e+01 0.000000e+00 0.000000e+00
2.500000e+01 0.000000e+00 0.000000e+00
2.450000e+01 0.000000e+00 0.000000e+00
2.400000e+01 0.000000e+00 0.000000e+00
2.350000e+01 0.000000e+00 0.000000e+00
2.300000e+01 0.000000e+00 0.000000e+00
2.250000e+01 0.000000e+00 0.000000e+00
2.200000e+01 0.000000e+00 0.000000e+00
2.150000e+01 0.000000e+00 0.000000e+00
2.100000e+01 0.000000e+00 0.000000e+00
2.050000e+01 0.000000e+00 0.000000e+00
2.000000e+01 0.000000e+00 0.000000e+00
1.950000e+01 0.000000e+00 0.000000e+00
1.900000e+01 0.000000e+00 0.000000e+00
1.850000e+01 0.000000e+00 0.000000e+00
1.800000e+01 0.000000e+00 0.000000e+00
1.750000e+01 0.000000e+00 0.000000e+00
1.700000e+01 0.000000e+00 0.000000e+00
1.650000e+01 0.000000e+00 0.000000e+00
1.600000e+01 0.000000e+00 0.000000e+00
1.550000e+01 0.000000e+00 0.000000e+00
1.500000e+01 0.000000e+00 0.000000e+00
3.000000e+01 -5.000000e-01 0.000000e+00
2.950000e+01 -5.000000e-01 0.000000e+00
2.900000e+01 -5.000000e-01 0.000000e+00
2.850000e+01 -5.000000e-01 0.000000e+00
2.800000e+01 -5.000000e-01 0.000000e+00
2.750000e+01 -5.000000e-01 0.000000e+00
2.700000e+01 -5.000000e-01 0.000000e+00
2.650000e+01 -5.000000e-01 0.000000e+00
2.600000e+01 -5.000000e-01 0.000000e+00
2.550000e+01 -5.000000e-01 0.000000e+00
2.500000e+01 -5.000000e-01 0.000000e+00
2.450000e+01 -5.000000e-01 0.000000e+00
2.400000e+01 -5.000000e-01 0.000000e+00
2.350000e+01 -5.000000e-01 0.000000e+00
2.300000e+01 -5.000000e-01 0.000000e+00
2.250000e+01 -5.000000e-01 0.000000e+00
2.200000e+01 -5.000000e-01 0.000000e+00
2.150000e+01 -5.000000e-01 0.000000e+00
2.100000e+01 -5.000000e-01 0.000000e+00
2.050000e+01 -5.000000e-01 0.000000e+00
2.000000e+01 -5.000000e-01 0.000000e+00
1.950000e+01 -5.000000e-01 0.000000e+00
1.900000e+01 -5.000000e-01 0.000000e+00
1.850000e+01 -5.000000e-01 0.000000e+00
1.800000e+01 -5.000000e-01 0.000000e+00
1.750000e+01 -5.000000e-01 0.000000e+00
1.700000e+01 -5.000000e-01 0.000000e+00
1.650000e+01 -5.000000e-01 0.000000e+00
1.600000e+01 -5.000000e-01 0.000000e+00
1.550000e+01 -5.000000e-01 0.000000e+00
1.500000e+01 -5.000000e-01 0.000000e+00
3.000000e+01 -1.000000e+00 0.000000e+00
2.950000e+01 -1.000000e+00 0.000000e+00
2.900000e+01 -1.000000e+00 0.000000e+00
2.850000e+01 -1.000000e+00 0.000000e+00
2.800000e+01 -1.000000e+00 0.000000e+00
2.750000e+01 -1.000000e+00 0.000000e+00
2.700000e+01 -1.000000e+00 0.000000e+00
2.650000e+01 -1.000000e+00 0.000000e+00
2.600000e+01 -1.000000e+00 0.000000e+00
2.550000e+01 -1.000000e+00 0.000000e+00
2.500000e+01 -1.000000e+00 0.000000e+00
2.450000e+01 -1.000000e+00 0.000000e+00
2.400000e+01 -1.000000e+00 0.000000e+00
2.350000e+01 -1.000000e+00 0.000000e+00
2.300000e+01 -1.000000e+00 0.000000e+00
2.250000e+01 -1.000000e+00 0.000000e+00
2.200000e+01 -1.000000e+00 0.000000e+00
2.150000e+01 -1.000000e+00 0.000000e+00
2.100000e+01 -1.000000e+00 0.000000e+00
2.050000e+01 -1.000000e+00 0.000000e+00
2.000000e+01 -1.000000e+00 0.000000e+00
1.950000e+01 -1.000000e+00 0.000000e+00
1.900000e+01 -1.000000e+00 0.000000e+00
1.850000e+01 -1.000000e+00 0.000000e+00
1.800000e+01 -1.000000e+00 0.000000e+00
1.750000e+01 -1.000000e+00 0.000000e+00
1.700000e+01 -1.000000e+00 0.000000e+00
1.650000e+01 -1.000000e+00 0.000000e+00
1.600000e+01 -1.000000e+00 0.000000e+00
1.550000e+01 -1.000000e+00 0.000000e+00
1.500000e+01 -1.000000e+00 0.000000e+00
3.000000e+01 -1.500000e+00 0.000000e+00
2.950000e+01 -1.500000e+00 0.000000e+00
2.900000e+01 -1.500000e+00 0.000000e+00
2.850000e+01 -1.500000e+00 0.000000e+00
2.800000e+01 -1.500000e+00 0.000000e+00
2.750000e+01 -1.500000e+00 0.000000e+00
2.700000e+01 -1.500000e+00 0.000000e+00
2.650000e+01 -1.500000e+00 0.000000e+00
2.600000e+01 -1.500000e+00 0.000000e+00
2.550000e+01 -1.500000e+00 0.000000e+00
2.500000e+01 -1.500000e+00 0.000000e+00
2.450000e+01 -1.500000e+00 0.000000e+00
2.400000e+01 -1.500000e+00 0.000000e+00
2.350000e+01 -1.500000e+00 0.000000e+00
2.300000e+01 -1.500000e+00 0.000000e+00
2.250000e+01 -1.500000e+00 0.000000e+00
2.200000e+01 -1.500000e+00 0.000000e+00
2.150000e+01 -1.500000e+00 0.000000e+00
2.100000e+01 -1.500000e+00 0.000000e+00
2.050000e+01 -1.500000e+00 0.000000e+00
2.000000e+01 -1.500000e+00 0.000000e+00
1.950000e+01 -1.500000e+00 0.000000e+00
1.900000e+01 -1.500000e+00 0.000000e+00
1.850000e+01 -1.500000e+00 0.000000e+00
1.800000e+01 -1.500000e+00 0.000000e+00
1.750000e+01 -1.500000e+00 0.000000e+00
1.700000e+01 -1.500000e+00 0.000000e+00
1.650000e+01 -1.500000e+00 0.000000e+00
1.600000e+01 -1.500000e+00 0.000000e+00
1.550000e+01 -1.500000e+00 0.000000e+00
1.500000e+01 -1.500000e+00 0.000000e+00
3.000000e+01 -2.000000e+00 0.000000e+00
2.950000e+01 -2.000000e+00 0.000000e+00
2.900000e+01 -2.000000e+00 0.000000e+00
2.850000e+01 -2.000000e+00 0.000000e+00
2.800000e+01 -2.000000e+00 0.000000e+00
2.750000e+01 -2.000000e+00 0.000000e+00
2.700000e+01 -2.000000e+00 0.000000e+00
2.650000e+01 -2.000000e+00 0.000000e+00
2.600000e+01 -2.000000e+00 0.000000e+00
2.550000e+01 -2.000000e+00 0.000000e+00
2.500000e+01 -2.000000e+00 0.000000e+00
2.450000e+01 -2.000000e+00 0.000000e+00
2.400000e+01 -2.000000e+00 0.000000e+00
2.350000e+01 -2.000000e+00 0.000000e+00
2.300000e+01 -2.000000e+00 0.000000e+00
2.250000e+01 -2.000000e+00 0.000000e+00
2.200000e+01 -2.000000e+00 0.000000e+00
2.150000e+01 -2.000000e+00 0.000000e+00
2.100000e+01 -2.000000e+00 0.000000e+00
2.050000e+01 -2.000000e+00 0.000000e+00
2.000000e+01 -2.000000e+00 0.000000e+00
1.950000e+01 -2.000000e+00 0.000000e+00
1.900000e+01 -2.000000e+00 0.000000e+00
1.850000e+01 -2.000000e+00 0.000000e+00
1.800000e+01 -2.000000e+00 0.000000e+00
1.750000e+01 -2.000000e+00 0.000000e+00
1.700000e+01 -2.000000e+00 0.000000e+00
1.650000e+01 -2.000000e+00 0.000000e+00
1.600000e+01 -2.000000e+00 0.000000e+00
1.550000e+01 -2.000000e+00 0.000000e+00
1.500000e+01 -2.000000e+00 0.000000e+00
3.000000e+01 -2.500000e+00 0.000000e+00
2.950000e+01 -2.500000e+00 0.000000e+00
2.900000e+01 -2.500000e+00 0.000000e+00
2.850000e+01 -2.500000e+00 0.000000e+00
2.800000e+01 -2.500000e+00 0.000000e+00
2.750000e+01 -2.500000e+00 0.000000e+00
2.700000e+01 -2.500000e+00 0.000000e+00
2.650000e+01 -2.500000e+00 0.000000e+00
2.600000e+01 -2.500000e+00 0.000000e+00
2.550000e+01 -2.500000e+00 0.000000e+00
2.500000e+01 -2.500000e+00 0.000000e+00
2.450000e+01 -2.500000e+00 0.000000e+00
2.400000e+01 -2.500000e+00 0.000000e+00
2.350000e+01 -2.500000e+00 0.000000e+00
2.300000e+01 -2.500000e+00 0.000000e+00
2.250000e+01 -2.500000e+00 0.000000e+00
2.200000e+01 -2.500000e+00 0.000000e+00
2.150000e+01 -2.500000e+00 0.000000e+00
2.100000e+01 -2.500000e+00 0.000000e+00
2.050000e+01 -2.500000e+00 0.000000e+00
2.000000e+01 -2.500000e+00 0.000000e+00
1.950000e+01 -2.500000e+00 0.000000e+00
1.900000e+01 -2.500000e+00 0.000000e+00
1.850000e+01 -2.500000e+00 0.000000e+00
1.800000e+01 -2.500000e+00 0.000000e+00
1.750000e+01 -2.500000e+00 0.000000e+00
1.700000e+01 -2.500000e+00 0.000000e+00
1.650000e+01 -2.500000e+00 0.000000e+00
1.600000e+01 -2.500000e+00 0.000000e+00
1.550000e+01 -2.500000e+00 0.000000e+00
1.500000e+01 -2.500000e+00 0.000000e+00
3.000000e+01 -3.000000e+00 0.000000e+00
2.950000e+01 -3.000000e+00 0.000000e+00
2.900000e+01 -3.000000e+00 0.000000e+00
2.850000e+01 -3.000000e+00 0.000000e+00
2.800000e+01 -3.000000e+00 0.000000e+00
2.750000e+01 -3.000000e+00 0.000000e+00
2.700000e+01 -3.000000e+00 0.000000e+00
2.650000e+01 -3.000000e+00 0.000000e+00
2.600000e+01 -3.000000e+00 0.000000e+00
2.550000e+01 -3.000000e+00 0.000000e+00
2.500000e+01 -3.000000e+00 0.000000e+00
2.450000e+01 -3.000000e+00 0.000000e+00
2.400000e+01 -3.000000e+00 0.000000e+00
2.350000e+01 -3.000000e+00 0.000000e+00
2.300000e+01 -3.000000e+00 0.000000e+00
2.250000e+01 -3.000000e+00 0.000000e+00
2.200000e+01 -3.000000e+00 0.000000e+00
2.150000e+01 -3.000000e+00 0.000000e+00
2.100000e+01 -3.000000e+00 0.000000e+00
2.050000e+01 -3.000000e+00 0.000000e+00
2.000000e+01 -3.000000e+00 0.000000e+00
1.950000e+01 -3.000000e+00 0.000000e+00
1.900000e+01 -3.000000e+00 0.000000e+00
1.850000e+01 -3.000000e+00 0.000000e+00
1.800000e+01 -3.000000e+00 0.000000e+00
1.750000e+01 -3.000000e+00 0.000000e+00
1.700000e+01 -3.000000e+00 0.000000e+00
1.650000e+01 -3.000000e+00 0.000000e+00
1.600000e+01 -3.000000e+00 0.000000e+00
1.550000e+01 -3.000000e+00 0.000000e+00
1.500000e+01 -3.000000e+00 0.000000e+00
3.000000e+01 -3.500000e+00 0.000000e+00
2.950000e+01 -3.500000e+00 0.000000e+00
2.900000e+01 -3.500000e+00 0.000000e+00
2.850000e+01 -3.500000e+00 0.000000e+00
2.800000e+01 -3.500000e+00 0.000000e+00
2.750000e+01 -3.500000e+00 0.000000e+00
2.700000e+01 -3.500000e+00 0.000000e+00
2.650000e+01 -3.500000e+00 0.000000e+00
2.600000e+01 -3.500000e+00 0.000000e+00
2.550000e+01 -3.500000e+00 0.000000e+00
2.500000e+01 -3.500000e+00 0.000000e+00
2.450000e+01 -3.500000e+00 0.000000e+00
2.400000e+01 -3.500000e+00 0.000000e+00
2.350000e+01 -3.500000e+00 0.000000e+00
2.300000e+01 -3.500000e+00 0.000000e+00
2.250000e+01 -3.500000e+00 0.000000e+00
2.200000e+01 -3.500000e+00 0.000000e+00
2.150000e+01 -3.500000e+00 0.000000e+00
2.100000e+01 -3.500000e+00 0.000000e+00
2.050000e+01 -3.500000e+00 0.000000e+00
2.000000e+01 -3.500000e+00 0.000000e+00
1.950000e+01 -3.500000e+00 0.000000e+00
1.900000e+01 -3.500000e+00 0.000000e+00
1.850000e+01 -3.500000e+00 0.000000e+00
1.800000e+01 -3.500000e+00 0.000000e+00
1.750000e+01 -3.500000e+00 0.000000e+00
1.700000e+01 -3.500000e+00 0.000000e+00
1.650000e+01 -3.500000e+00 0.000000e+00
1.600000e+01 -3.500000e+00 0.000000e+00
1.550000e+01 -3.500000e+00 0.000000e+00
1.500000e+01 -3.500000e+00 0.000000e+00
3.000000e+01 -4.000000e+00 0.000000e+00
2.950000e+01 -4.000000e+00 0.000000e+00
2.900000e+01 -4.000000e+00 0.000000e+00
2.850000e+01 -4.000000e+00 0.000000e+00
2.800000e+01 -4.000000e+00 0.000000e+00
2.750000e+01 -4.000000e+00 0.000000e+00
2.700000e+01 -4.000000e+00 0.000000e+00
2.650000e+01 -4.000000e+00 0.000000e+00
2.600000e+01 -4.000000e+00 0.000000e+00
2.550000e+01 -4.000000e+00 0.000000e+00
2.500000e+01 -4.000000e+00 0.000000e+00
2.450000e+01 -4.000000e+00 0.000000e+00
2.400000e+01 -4.000000e+00 0.000000e+00
2.350000e+01 -4.000000e+00 0.000000e+00
2.300000e+01 -4.000000e+00 0.000000e+00
2.250000e+01 -4.000000e+00 0.000000e+00
2.200000e+01 -4.000000e+00 0.000000e+00
2.150000e+01 -4.000000e+00 0.000000e+00
2.100000e+01 -4.000000e+00 0.000000e+00
2.050000e+01 -4.000000e+00 0.000000e+00
2.000000e+01 -4.000000e+00 0.000000e+00
1.950000e+01 -4.000000e+00 0.000000e+00
1.900000e+01 -4.000000e+00 0.000000e+00
1.850000e+01 -4.000000e+00 0.000000e+00
1.800000e+01 -4.000000e+00 0.000000e+00
1.750000e+01 -4.000000e+00 0.000000e+00
1.700000e+01 -4.000000e+00 0.000000e+00
1.650000e+01 -4.000000e+00 0.000000e+00
1.600000e+01 -4.000000e+00 0.000000e+00
1.550000e+01 -4.000000e+00 0.000000e+00
1.500000e+01 -4.000000e+00 0.000000e+00
3.000000e+01 -4.500000e+00 0.000000e+00
2.950000e+01 -4.500000e+00 0.000000e+00
2.900000e+01 -4.500000e+00 0.000000e+00
2.850000e+01 -4.500000e+00 0.000000e+00
2.800000e+01 -4.500000e+00 0.000000e+00
2.750000e+01 -4.500000e+00 0.000000e+00
2.700000e+01 -4.500000e+00 0.000000e+00
2.650000e+01 -4.500000e+00 0.000000e+00
2.600000e+01 -4.500000e+00 0.000000e+00
2.550000e+01 -4.500000e+00 0.000000e+00
2.500000e+01 -4.500000e+00 0.000000e+00
2.450000e+01 -4.500000e+00 0.000000e+00
2.400000e+01 -4.500000e+00 0.000000e+00
2.350000e+01 -4.500000e+00 0.000000e+00
2.300000e+01 -4.500000e+00 0.000000e+00
2.250000e+01 -4.500000e+00 0.000000e+00
2.200000e+01 -4.500000e+00 0.000000e+00
2.150000e+01 -4.500000e+00 0.000000e+00
2.100000e+01 -4.500000e+00 0.000000e+00
2.050000e+01 -4.500000e+00 0.000000e+00
2.000000e+01 -4.500000e+00 0.000000e+00
1.950000e+01 -4.500000e+00 0.000000e+00
1.900000e+01 -4.500000e+00 0.000000e+00
1.850000e+01 -4.500000e+00 0.000000e+00
1.800000e+01 -4.500000e+00 0.000000e+00
1.750000e+01 -4.500000e+00 0.000000e+00
1.700000e+01 -4.500000e+00 0.000000e+00
1.650000e+01 -4.500000e+00 0.000000e+00
1.600000e+01 -4.500000e+00 0.000000e+00
1.550000e+01 -4.500000e+00 0.000000e+00
1.500000e+01 -4.500000e+00 0.000000e+00
3.000000e+01 -5.000000e+00 0.000000e+00
2.950000e+01 -5.000000e+00 0.000000e+00
2.900000e+01 -5.000000e+00 0.000000e+00
2.850000e+01 -5.000000e+00 0.000000e+00
2.800000e+01 -5.000000e+00 0.000000e+00
2.750000e+01 -5.000000e+00 0.000000e+00
2.700000e+01 -5.000000e+00 0.000000e+00
2.650000e+01 -5.000000e+00 0.000000e+00
2.600000e+01 -5.000000e+00 0.000000e+00
2.550000e+01 -5.000000e+00 0.000000e+00
2.500000e+01 -5.000000e+00 0.000000e+00
2.450000e+01 -5.000000e+00 0.000000e+00
2.400000e+01 -5.000000e+00 0.000000e+00
2.350000e+01 -5.000000e+00 0.000000e+00
2.300000e+01 -5.000000e+00 0.000000e+00
2.250000e+01 -5.000000e+00 0.000000e+00
2.200000e+01 -5.000000e+00 0.000000e+00
2.150000e+01 -5.000000e+00 0.000000e+00
2.100000e+01 -5.000000e+00 0.000000e+00
2.050000e+01 -5.000000e+00 0.000000e+00
2.000000e+01 -5.000000e+00 0.000000e+00
1.950000e+01 -5.000000e+00 0.000000e+00
1.900000e+01 -5.000000e+00 0.000000e+00
1.850000e+01 -5.000000e+00 0.000000e+00
1.800000e+01 -5.000000e+00 0.000000e+00
1.750000e+01 -5.000000e+00 0.000000e+00
1.700000e+01 -5.000000e+00 0.000000e+00
1.650000e+01 -5.000000e+00 0.000000e+00
1.600000e+01 -5.000000e+00 0.000000e+00
1.550000e+01 -5.000000e+00 0.000000e+00
1.500000e+01 -5.000000e+00 0.000000e+00
3.000000e+01 -5.500000e+00 0.000000e+00
2.950000e+01 -5.500000e+00 0.000000e+00
2.900000e+01 -5.500000e+00 0.000000e+00
2.850000e+01 -5.500000e+00 0.000000e+00
2.800000e+01 -5.500000e+00 0.000000e+00
2.750000e+01 -5.500000e+00 0.000000e+00
2.700000e+01 -5.500000e+00 0.000000e+00
2.650000e+01 -5.500000e+00 0.000000e+00
2.600000e+01 -5.500000e+00 0.000000e+00
2.550000e+01 -5.500000e+00 0.000000e+00
2.500000e+01 -5.500000e+00 0.000000e+00
2.450000e+01 -5.500000e+00 0.000000e+00
2.400000e+01 -5.500000e+00 0.000000e+00
2.350000e+01 -5.500000e+00 0.000000e+00
2.300000e+01 -5.500000e+00 0.000000e+00
2.250000e+01 -5.500000e+00 0.000000e+00
2.200000e+01 -5.500000e+00 0.000000e+00
2.150000e+01 -5.500000e+00 0.000000e+00
2.100000e+01 -5.500000e+00 0.000000e+00
2.050000e+01 -5.500000e+00 0.000000e+00
2.000000e+01 -5.500000e+00 0.000000e+00
1.950000e+01 -5.500000e+00 0.000000e+00
1.900000e+01 -5.500000e+00 0.000000e+00
1.850000e+01 -5.500000e+00 0.000000e+00
1.800000e+01 -5.500000e+00 0.000000e+00
1.750000e+01 -5.500000e+00 0.000000e+00
1.700000e+01 -5.500000e+00 0.000000e+00
1.650000e+01 -5.500000e+00 0.000000e+00
1.600000e+01 -5.500000e+00 0.000000e+00
1.550000e+01 -5.500000e+00 0.000000e+00
1.500000e+01 -5.500000e+00 0.000000e+00
3.000000e+01 -6.000000e+00 0.000000e+00
2.950000e+01 -6.000000e+00 0.000000e+00
2.900000e+01 -6.000000e+00 0.000000e+00
2.850000e+01 -6.000000e+00 0.000000e+00
2.800000e+01 -6.000000e+00 0.000000e+00
2.750000e+01 -6.000000e+00 0.000000e+00
2.700000e+01 -6.000000e+00 0.000000e+00
2.650000e+01 -6.000000e+00 0.000000e+00
2.600000e+01 -6.000000e+00 0.000000e+00
2.550000e+01 -6.000000e+00 0.000000e+00
2.500000e+01 -6.000000e+00 0.000000e+00
2.450000e+01 -6.000000e+00 0.000000e+00
2.400000e+01 -6.000000e+00 0.000000e+00
2.350000e+01 -6.000000e+00 0.000000e+00
2.300000e+01 -6.000000e+00 0.000000e+00
2.250000e+01 -6.000000e+00 0.000000e+00
2.200000e+01 -6.000000e+00 0.000000e+00
2.150000e+01 -6.000000e+00 0.000000e+00
2.100000e+01 -6.000000e+00 0.000000e+00
2.050000e+01 -6.000000e+00 0.000000e+00
2.000000e+01 -6.000000e+00 0.000000e+00
1.950000e+01 -6.000000e+00 0.000000e+00
1.900000e+01 -6.000000e+00 0.000000e+00
1.850000e+01 -6.000000e+00 0.000000e+00
1.800000e+01 -6.000000e+00 0.000000e+00
1.750000e+01 -6.000000e+00 0.000000e+00
1.700000e+01 -6.000000e+00 0.000000e+00
1.650000e+01 -6.000000e+00 0.000000e+00
1.600000e+01 -6.000000e+00 0.000000e+00
1.550000e+01 -6.000000e+00 0.000000e+00
1.500000e+01 -6.000000e+00 0.000000e+00
3.000000e+01 -6.500000e+00 0.000000e+00
2.950000e+01 -6.500000e+00 0.000000e+00
2.900000e+01 -6.500000e+00 0.000000e+00
2.850000e+01 -6.500000e+00 0.000000e+00
2.800000e+01 -6.500000e+00 0.000000e+00
2.750000e+01 -6.500000e+00 0.000000e+00
2.700000e+01 -6.500000e+00 0.000000e+00
2.650000e+01 -6.500000e+00 0.000000e+00
2.600000e+01 -6.500000e+00 0.000000e+00
2.550000e+01 -6.500000e+00 0.000000e+00
2.500000e+01 -6.500000e+00 0.000000e+00
2.450000e+01 -6.500000e+00 0.000000e+00
2.400000e+01 -6.500000e+00 0.000000e+00
2.350000e+01 -6.500000e+00 0.000000e+00
2.300000e+01 -6.500000e+00 0.000000e+00
2.250000e+01 -6.500000e+00 0.000000e+00
2.200000e+01 -6.500000e+00 0.000000e+00
2.150000e+01 -6.500000e+00 0.000000e+00
2.100000e+01 -6.500000e+00 0.000000e+00
2.050000e+01 -6.500000e+00 0.000000e+00
2.000000e+01 -6.500000e+00 0.000000e+00
1.950000e+01 -6.500000e+00 0.000000e+00
1.900000e+01 -6.500000e+00 0.000000e+00
1.850000e+01 -6.500000e+00 0.000000e+00
1.800000e+01 -6.500000e+00 0.000000e+00
1.750000e+01 -6.500000e+00 0.000000e+00
1.700000e+01 -6.500000e+00 0.000000e+00
1.650000e+01 -6.500000e+00 0.000000e+00
1.600000e+01 -6.500000e+00 0.000000e+00
1.550000e+01 -6.500000e+00 0.000000e+00
1.500000e+01 -6.500000e+00 0.000000e+00
3.000000e+01 -7.000000e+00 0.000000e+00
2.950000e+01 -7.000000e+00 0.000000e+00
2.900000e+01 -7.000000e+00 0.000000e+00
2.850000e+01 -7.000000e+00 0.000000e+00
2.800000e+01 -7.000000e+00 0.000000e+00
2.750000e+01 -7.000000e+00 0.000000e+00
2.700000e+01 -7.000000e+00 0.000000e+00
2.650000e+01 -7.000000e+00 0.000000e+00
2.600000e+01 -7.000000e+00 0.000000e+00
2.550000e+01 -7.000000e+00 0.000000e+00
2.500000e+01 -7.000000e+00 0.000000e+00
2.450000e+01 -7.000000e+00 0.000000e+00
2.400000e+01 -7.000000e+00 0.000000e+00
2.350000e+01 -7.000000e+00 0.000000e+00
2.300000e+01 -7.000000e+00 0.000000e+00
2.250000e+01 -7.000000e+00 0.000000e+00
2.200000e+01 -7.000000e+00 0.000000e+00
2.150000e+01 -7.000000e+00 0.000000e+00
2.100000e+01 -7.000000e+00 0.000000e+00
2.050000e+01 -7.000000e+00 0.000000e+00
2.000000e+01 -7.000000e+00 0.000000e+00
1.950000e+01 -7.000000e+00 0.000000e+00
1.900000e+01 -7.000000e+00 0.000000e+00
1.850000e+01 -7.000000e+00 0.000000e+00
1.800000e+01 -7.000000e+00 0.000000e+00
1.750000e+01 -7.000000e+00 0.000000e+00
1.700000e+01 -7.000000e+00 0.000000e+00
1.650000e+01 -7.000000e+00 0.000000e+00
1.600000e+01 -7.000000e+00 0.000000e+00
1.550000e+01 -7.000000e+00 0.000000e+00
1.500000e+01 -7.000000e+00 0.000000e+00
3.000000e+01 -7.500000e+00 0.000000e+00
2.950000e+01 -7.500000e+00 0.000000e+00
2.900000e+01 -7.500000e+00 0.000000e+00
2.850000e+01 -7.500000e+00 0.000000e+00
2.800000e+01 -7.500000e+00 0.000000e+00
2.750000e+01 -7.500000e+00 0.000000e+00
2.700000e+01 -7.500000e+00 0.000000e+00
2.650000e+01 -7.500000e+00 0.000000e+00
2.600000e+01 -7.500000e+00 0.000000e+00
2.550000e+01 -7.500000e+00 0.000000e+00
2.500000e+01 -7.500000e+00 0.000000e+00
2.450000e+01 -7.500000e+00 0.000000e+00
2.400000e+01 -7.500000e+00 0.000000e+00
2.350000e+01 -7.500000e+00 0.000000e+00
2.300000e+01 -7.500000e+00 0.000000e+00
2.250000e+01 -7.500000e+00 0.000000e+00
2.200000e+01 -7.500000e+00 0.000000e+00
2.150000e+01 -7.500000e+00 0.000000e+00
2.100000e+01 -7.500000e+00 0.000000e+00
2.050000e+01 -7.500000e+00 0.000000e+00
2.000000e+01 -7.500000e+00 0.000000e+00
1.950000e+01 -7.500000e+00 0.000000e+00
1.900000e+01 -7.500000e+00 0.000000e+00
1.850000e+01 -7.500000e+00 0.000000e+00
1.800000e+01 -7.500000e+00 0.000000e+00
1.750000e+01 -7.500000e+00 0.000000e+00
1.700000e+01 -7.500000e+00 0.000000e+00
1.650000e+01 -7.500000e+00 0.000000e+00
1.600000e+01 -7.500000e+00 0.000000e+00
1.550000e+01 -7.500000e+00 0.000000e+00
1.500000e+01 -7.500000e+00 0.000000e+00
3.000000e+01 -8.000000e+00 0.000000e+00
2.950000e+01 -8.000000e+00 0.000000e+00
2.900000e+01 -8.000000e+00 0.000000e+00
2.850000e+01 -8.000000e+00 0.000000e+00
2.800000e+01 -8.000000e+00 0.000000e+00
2.750000e+01 -8.000000e+00 0.000000e+00
2.700000e+01 -8.000000e+00 0.000000e+00
2.650000e+01 -8.000000e+00 0.000000e+00
2.600000e+01 -8.000000e+00 0.000000e+00
2.550000e+01 -8.000000e+00 0.000000e+00
2.500000e+01 -8.000000e+00 0.000000e+00
2.450000e+01 -8.000000e+00 0.000000e+00
2.400000e+01 -8.000000e+00 0.000000e+00
2.350000e+01 -8.000000e+00 0.000000e+00
2.300000e+01 -8.000000e+00 0.000000e+00
2.250000e+01 -8.000000e+00 0.000000e+00
2.200000e+01 -8.000000e+00 0.000000e+00
2.150000e+01 -8.000000e+00 0.000000e+00
2.100000e+01 -8.000000e+00 0.000000e+00
2.050000e+01 -8.000000e+00 0.000000e+00
2.000000e+01 -8.000000e+00 0.000000e+00
1.950000e+01 -8.000000e+00 0.000000e+00
1.900000e+01 -8.000000e+00 0.000000e+00
1.850000e+01 -8.000000e+00 0.000000e+00
1.800000e+01 -8.000000e+00 0.000000e+00
1.750000e+01 -8.000000e+00 0.000000e+00
1.700000e+01 -8.000000e+00 0.000000e+00
1.650000e+01 -8.000000e+00 0.000000e+00
1.600000e+01 -8.000000e+00 0.000000e+00
1.550000e+01 -8.000000e+00 0.000000e+00
1.500000e+01 -8.000000e+00 0.000000e+00
3.000000e+01 -8.500000e+00 0.000000e+00
2.950000e+01 -8.500000e+00 0.000000e+00
2.900000e+01 -8.500000e+00 0.000000e+00
2.850000e+01 -8.500000e+00 0.000000e+00
2.800000e+01 -8.500000e+00 0.000000e+00
2.750000e+01 -8.500000e+00 0.000000e+00
2.700000e+01 -8.500000e+00 0.000000e+00
2.650000e+01 -8.500000e+00 0.000000e+00
2.600000e+01 -8.500000e+00 0.000000e+00
2.550000e+01 -8.500000e+00 0.000000e+00
2.500000e+01 -8.500000e+00 0.000000e+00
2.450000e+01 -8.500000e+00 0.000000e+00
2.400000e+01 -8.500000e+00 0.000000e+00
2.350000e+01 -8.500000e+00 0.000000e+00
2.300000e+01 -8.500000e+00 0.000000e+00
2.250000e+01 -8.500000e+00 0.000000e+00
2.200000e+01 -8.500000e+00 0.000000e+00
2.150000e+01 -8.500000e+00 0.000000e+00
2.100000e+01 -8.500000e+00 0.000000e+00
2.050000e+01 -8.500000e+00 0.000000e+00
2.000000e+01 -8.500000e+00 0.000000e+00
1.950000e+01 -8.500000e+00 0.000000e+00
1.900000e+01 -8.500000e+00 0.000000e+00
1.850000e+01 -8.500000e+00 0.000000e+00
1.800000e+01 -8.500000e+00 0.000000e+00
1.750000e+01 -8.500000e+00 0.000000e+00
1.700000e+01 -8.500000e+00 0.000000e+00
1.650000e+01 -8.500000e+00 0.000000e+00
1.600000e+01 -8.500000e+00 0.000000e+00
1.550000e+01 -8.500000e+00 0.000000e+00
1.500000e+01 -8.500000e+00 0.000000e+00
3.000000e+01 -9.000000e+00 0.000000e+00
2.950000e+01 -9.000000e+00 0.000000e+00
2.900000e+01 -9.000000e+00 0.000000e+00
2.850000e+01 -9.000000e+00 0.000000e+00
2.800000e+01 -9.000000e+00 0.000000e+00
2.750000e+01 -9.000000e+00 0.000000e+00
2.700000e+01 -9.000000e+00 0.000000e+00
2.650000e+01 -9.000000e+00 0.000000e+00
2.600000e+01 -9.000000e+00 0.000000e+00
2.550000e+01 -9.000000e+00 0.000000e+00
2.500000e+01 -9.000000e+00 0.000000e+00
2.450000e+01 -9.000000e+00 0.000000e+00
2.400000e+01 -9.000000e+00 0.000000e+00
2.350000e+01 -9.000000e+00 0.000000e+00
2.300000e+01 -9.000000e+00 0.000000e+00
2.250000e+01 -9.000000e+00 0.000000e+00
2.200000e+01 -9.000000e+00 0.000000e+00
2.150000e+01 -9.000000e+00 0.000000e+00
2.100000e+01 -9.000000e+00 0.000000e+00
2.050000e+01 -9.000000e+00 0.000000e+00
2.000000e+01 -9.000000e+00 0.000000e+00
1.950000e+01 -9.000000e+00 0.000000e+00
1.900000e+01 -9.000000e+00 0.000000e+00
1.850000e+01 -9.000000e+00 0.000000e+00
1.800000e+01 -9.000000e+00 0.000000e+00
1.750000e+01 -9.000000e+00 0.000000e+00
1.700000e+01 -9.000000e+00 0.000000e+00
1.650000e+01 -9.000000e+00 0.000000e+00
1.600000e+01 -9.000000e+00 0.000000e+00
1.550000e+01 -9.000000e+00 0.000000e+00
1.500000e+01 -9.000000e+00 0.000000e+00
3.000000e+01 -9.500000e+00 0.000000e+00
2.950000e+01 -9.500000e+00 0.000000e+00
2.900000e+01 -9.500000e+00 0.000000e+00
2.850000e+01 -9.500000e+00 0.000000e+00
2.800000e+01 -9.500000e+00 0.000000e+00
2.750000e+01 -9.500000e+00 0.000000e+00
2.700000e+01 -9.500000e+00 0.000000e+00
2.650000e+01 -9.500000e+00 0.000000e+00
2.600000e+01 -9.500000e+00 0.000000e+00
2.550000e+01 -9.500000e+00 0.000000e+00
2.500000e+01 -9.500000e+00 0.000000e+00
2.450000e+01 -9.500000e+00 0.000000e+00
2.400000e+01 -9.500000e+00 0.000000e+00
2.350000e+01 -9.500000e+00 0.000000e+00
2.300000e+01 -9.500000e+00 0.000000e+00
2.250000e+01 -9.500000e+00 0.000000e+00
2.200000e+01 -9.500000e+00 0.000000e+00
2.150000e+01 -9.500000e+00 0.000000e+00
2.100000e+01 -9.500000e+00 0.000000e+00
2.050000e+01 -9.500000e+00 0.000000e+00
2.000000e+01 -9.500000e+00 0.000000e+00
1.950000e+01 -9.500000e+00 0.000000e+00
1.900000e+01 -9.500000e+00 0.000000e+00
1.850000e+01 -9.500000e+00 0.000000e+00
1.800000e+01 -9.500000e+00 0.000000e+00
1.750000e+01 -9.500000e+00 0.000000e+00
1.700000e+01 -9.500000e+00 0.000000e+00
1.650000e+01 -9.500000e+00 0.000000e+00
1.600000e+01 -9.500000e+00 0.000000e+00
1.550000e+01 -9.500000e+00 0.000000e+00
1.500000e+01 -9.500000e+00 0.000000e+00
3.000000e+01 -1.000000e+01 0.000000e+00
2.950000e+01 -1.000000e+01 0.000000e+00
2.900000e+01 -1.000000e+01 0.000000e+00
2.850000e+01 -1.000000e+01 0.000000e+00
2.800000e+01 -1.000000e+01 0.000000e+00
2.750000e+01 -1.000000e+01 0.000000e+00
2.700000e+01 -1.000000e+01 0.000000e+00
2.650000e+01 -1.000000e+01 0.000000e+00
2.600000e+01 -1.000000e+01 0.000000e+00
2.550000e+01 -1.000000e+01 0.000000e+00
2.500000e+01 -1.000000e+01 0.000000e+00
2.450000e+01 -1.000000e+01 0.000000e+00
2.400000e+01 -1.000000e+01 0.000000e+00
2.350000e+01 -1.000000e+01 0.000000e+00
2.300000e+01 -1.000000e+01 0.000000e+00
2.250000e+01 -1.000000e+01 0.000000e+00
2.200000e+01 -1.000000e+01 0.000000e+00
2.150000e+01 -1.000000e+01 0.000000e+00
2.100000e+01 -1.000000e+01 0.000000e+00
2.050000e+01 -1.000000e+01 0.000000e+00
2.000000e+01 -1.000000e+01 0.000000e+00
1.950000e+01 -1.000000e+01 0.000000e+00
1.900000e+01 -1.000000e+01 0.000000e+00
1.850000e+01 -1.000000e+01 0.000000e+00
1.800000e+01 -1.000000e+01 0.000000e+00
1.750000e+01 -1.000000e+01 0.000000e+00
1.700000e+01 -1.000000e+01 0.000000e+00
1.650000e+01 -1.000000e+01 0.000000e+00
1.600000e+01 -1.000000e+01 0.000000e+00
1.550000e+01 -1.000000e+01 0.000000e+00
1.500000e+01 -1.000000e+01 0.000000e+00
3.000000e+01 -1.050000e+01 0.000000e+00
2.950000e+01 -1.050000e+01 0.000000e+00
2.900000e+01 -1.050000e+01 0.000000e+00
2.850000e+01 -1.050000e+01 0.000000e+00
2.800000e+01 -1.050000e+01 0.000000e+00
2.750000e+01 -1.050000e+01 0.000000e+00
2.700000e+01 -1.050000e+01 0.000000e+00
2.650000e+01 -1.050000e+01 0.000000e+00
2.600000e+01 -1.050000e+01 0.000000e+00
2.550000e+01 -1.050000e+01 0.000000e+00
2.500000e+01 -1.050000e+01 0.000000e+00
2.450000e+01 -1.050000e+01 0.000000e+00
2.400000e+01 -1.050000e+01 0.000000e+00
2.350000e+01 -1.050000e+01 0.000000e+00
2.300000e+01 -1.050000e+01 0.000000e+00
2.250000e+01 -1.050000e+01 0.000000e+00
2.200000e+01 -1.050000e+01 0.000000e+00
2.150000e+01 -1.050000e+01 0.000000e+00
2.100000e+01 -1.050000e+01 0.000000e+00
2.050000e+01 -1.050000e+01 0.000000e+00
2.000000e+01 -1.050000e+01 0.000000e+00
1.950000e+01 -1.050000e+01 0.000000e+00
1.900000e+01 -1.050000e+01 0.000000e+00
1.850000e+01 -1.050000e+01 0.000000e+00
1.800000e+01 -1.050000e+01 0.000000e+00
1.750000e+01 -1.050000e+01 0.000000e+00
1.700000e+01 -1.050000e+01 0.000000e+00
1.650000e+01 -1.050000e+01 0.000000e+00
1.600000e+01 -1.050000e+01 0.000000e+00
1.550000e+01 -1.050000e+01 0.000000e+00
1.500000e+01 -1.050000e+01 0.000000e+00
3.000000e+01 -1.100000e+01 0.000000e+00
2.950000e+01 -1.100000e+01 0.000000e+00
2.900000e+01 -1.100000e+01 0.000000e+00
2.850000e+01 -1.100000e+01 0.000000e+00
2.800000e+01 -1.100000e+01 0.000000e+00
2.750000e+01 -1.100000e+01 0.000000e+00
2.700000e+01 -1.100000e+01 0.000000e+00
2.650000e+01 -1.100000e+01 0.000000e+00
2.600000e+01 -1.100000e+01 0.000000e+00
2.550000e+01 -1.100000e+01 0.000000e+00
2.500000e+01 -1.100000e+01 0.000000e+00
2.450000e+01 -1.100000e+01 0.000000e+00
2.400000e+01 -1.100000e+01 0.000000e+00
2.350000e+01 -1.100000e+01 0.000000e+00
2.300000e+01 -1.100000e+01 0.000000e+00
2.250000e+01 -1.100000e+01 0.000000e+00
2.200000e+01 -1.100000e+01 0.000000e+00
2.150000e+01 -1.100000e+01 0.000000e+00
2.100000e+01 -1.100000e+01 0.000000e+00
2.050000e+01 -1.100000e+01 0.000000e+00
2.000000e+01 -1.100000e+01 0.000000e+00
1.950000e+01 -1.100000e+01 0.000000e+00
1.900000e+01 -1.100000e+01 0.000000e+00
1.850000e+01 -1.100000e+01 0.000000e+00
1.800000e+01 -1.100000e+01 0.000000e+00
1.750000e+01 -1.100000e+01 0.000000e+00
1.700000e+01 -1.100000e+01 0.000000e+00
1.650000e+01 -1.100000e+01 0.000000e+00
1.600000e+01 -1.100000e+01 0.000000e+00
1.550000e+01 -1.100000e+01 0.000000e+00
1.500000e+01 -1.100000e+01 0.000000e+00
3.000000e+01 -1.150000e+01 0.000000e+00
2.950000e+01 -1.150000e+01 0.000000e+00
2.900000e+01 -1.150000e+01 0.000000e+00
2.850000e+01 -1.150000e+01 0.000000e+00
2.800000e+01 -1.150000e+01 0.000000e+00
2.750000e+01 -1.150000e+01 0.000000e+00
2.700000e+01 -1.150000e+01 0.000000e+00
2.650000e+01 -1.150000e+01 0.000000e+00
2.600000e+01 -1.150000e+01 0.000000e+00
2.550000e+01 -1.150000e+01 0.000000e+00
2.500000e+01 -1.150000e+01 0.000000e+00
2.450000e+01 -1.150000e+01 0.000000e+00
2.400000e+01 -1.150000e+01 0.000000e+00
2.350000e+01 -1.150000e+01 0.000000e+00
2.300000e+01 -1.150000e+01 0.000000e+00
2.250000e+01 -1.150000e+01 0.000000e+00
2.200000e+01 -1.150000e+01 0.000000e+00
2.150000e+01 -1.150000e+01 0.000000e+00
2.100000e+01 -1.150000e+01 0.000000e+00
2.050000e+01 -1.150000e+01 0.000000e+00
2.000000e+01 -1.150000e+01 0.000000e+00
1.950000e+01 -1.150000e+01 0.000000e+00
1.900000e+01 -1.150000e+01 0.000000e+00
1.850000e+01 -1.150000e+01 0.000000e+00
1.800000e+01 -1.150000e+01 0.000000e+00
1.750000e+01 -1.150000e+01 0.000000e+00
1.700000e+01 -1.150000e+01 0.000000e+00
1.650000e+01 -1.150000e+01 0.000000e+00
1.600000e+01 -1.150000e+01 0.000000e+00
1.550000e+01 -1.150000e+01 0.000000e+00
1.500000e+01 -1.150000e+01 0.000000e+00
3.000000e+01 -1.200000e+01 0.000000e+00
2.950000e+01 -1.200000e+01 0.000000e+00
2.900000e+01 -1.200000e+01 0.000000e+00
2.850000e+01 -1.200000e+01 0.000000e+00
2.800000e+01 -1.200000e+01 0.000000e+00
2.750000e+01 -1.200000e+01 0.000000e+00
2.700000e+01 -1.200000e+01 0.000000e+00
2.650000e+01 -1.200000e+01 0.000000e+00
2.600000e+01 -1.200000e+01 0.000000e+00
2.550000e+01 -1.200000e+01 0.000000e+00
2.500000e+01 -1.200000e+01 0.000000e+00
2.450000e+01 -1.200000e+01 0.000000e+00
2.400000e+01 -1.200000e+01 0.000000e+00
2.350000e+01 -1.200000e+01 0.000000e+00
2.300000e+01 -1.200000e+01 0.000000e+00
2.250000e+01 -1.200000e+01 0.000000e+00
2.200000e+01 -1.200000e+01 0.000000e+00
2.150000e+01 -1.200000e+01 0.000000e+00
2.100000e+01 -1.200000e+01 0.000000e+00
2.050000e+01 -1.200000e+01 0.000000e+00
2.000000e+01 -1.200000e+01 0.000000e+00
1.950000e+01 -1.200000e+01 0.000000e+00
1.900000e+01 -1.200000e+01 0.000000e+00
1.850000e+01 -1.200000e+01 0.000000e+00
1.800000e+01 -1.200000e+01 0.000000e+00
1.750000e+01 -1.200000e+01 0.000000e+00
1.700000e+01 -1.200000e+01 0.000000e+00
1.650000e+01 -1.200000e+01 0.000000e+00
1.600000e+01 -1.200000e+01 0.000000e+00
1.550000e+01 -1.200000e+01 0.000000e+00
1.500000e+01 -1.200000e+01 0.000000e+00
3.000000e+01 -1.250000e+01 0.000000e+00
2.950000e+01 -1.250000e+01 0.000000e+00
2.900000e+01 -1.250000e+01 0.000000e+00
2.850000e+01 -1.250000e+01 0.000000e+00
2.800000e+01 -1.250000e+01 0.000000e+00
2.750000e+01 -1.250000e+01 0.000000e+00
2.700000e+01 -1.250000e+01 0.000000e+00
2.650000e+01 -1.250000e+01 0.000000e+00
2.600000e+01 -1.250000e+01 0.000000e+00
2.550000e+01 -1.250000e+01 0.000000e+00
2.500000e+01 -1.250000e+01 0.000000e+00
2.450000e+01 -1.250000e+01 0.000000e+00
2.400000e+01 -1.250000e+01 0.000000e+00
2.350000e+01 -1.250000e+01 0.000000e+00
2.300000e+01 -1.250000e+01 0.000000e+00
2.250000e+01 -1.250000e+01 0.000000e+00
2.200000e+01 -1.250000e+01 0.000000e+00
2.150000e+01 -1.250000e+01 0.000000e+00
2.100000e+01 -1.250000e+01 0.000000e+00
2.050000e+01 -1.250000e+01 0.000000e+00
2.000000e+01 -1.250000e+01 0.000000e+00
1.950000e+01 -1.250000e+01 0.000000e+00
1.900000e+01 -1.250000e+01 0.000000e+00
1.850000e+01 -1.250000e+01 0.000000e+00
1.800000e+01 -1.250000e+01 0.000000e+00
1.750000e+01 -1.250000e+01 0.000000e+00
1.700000e+01 -1.250000e+01 0.000000e+00
1.650000e+01 -1.250000e+01 0.000000e+00
1.600000e+01 -1.250000e+01 0.000000e+00
1.550000e+01 -1.250000e+01 0.000000e+00
1.500000e+01 -1.250000e+01 0.000000e+00
3.000000e+01 -1.300000e+01 0.000000e+00
2.950000e+01 -1.300000e+01 0.000000e+00
2.900000e+01 -1.300000e+01 0.000000e+00
2.850000e+01 -1.300000e+01 0.000000e+00
2.800000e+01 -1.300000e+01 0.000000e+00
2.750000e+01 -1.300000e+01 0.000000e+00
2.700000e+01 -1.300000e+01 0.000000e+00
2.650000e+01 -1.300000e+01 0.000000e+00
2.600000e+01 -1.300000e+01 0.000000e+00
2.550000e+01 -1.300000e+01 0.000000e+00
2.500000e+01 -1.300000e+01 0.000000e+00
2.450000e+01 -1.300000e+01 0.000000e+00
2.400000e+01 -1.300000e+01 0.000000e+00
2.350000e+01 -1.300000e+01 0.000000e+00
2.300000e+01 -1.300000e+01 0.000000e+00
2.250000e+01 -1.300000e+01 0.000000e+00
2.200000e+01 -1.300000e+01 0.000000e+00
2.150000e+01 -1.300000e+01 0.000000e+00
2.100000e+01 -1.300000e+01 0.000000e+00
2.050000e+01 -1.300000e+01 0.000000e+00
2.000000e+01 -1.300000e+01 0.000000e+00
1.950000e+01 -1.300000e+01 0.000000e+00
1.900000e+01 -1.300000e+01 0.000000e+00
1.850000e+01 -1.300000e+01 0.000000e+00
1.800000e+01 -1.300000e+01 0.000000e+00
1.750000e+01 -1.300000e+01 0.000000e+00
1.700000e+01 -1.300000e+01 0.000000e+00
1.650000e+01 -1.300000e+01 0.000000e+00
1.600000e+01 -1.300000e+01 0.000000e+00
1.550000e+01 -1.300000e+01 0.000000e+00
1.500000e+01 -1.300000e+01 0.000000e+00
3.000000e+01 -1.350000e+01 0.000000e+00
2.950000e+01 -1.350000e+01 0.000000e+00
2.900000e+01 -1.350000e+01 0.000000e+00
2.850000e+01 -1.350000e+01 0.000000e+00
2.800000e+01 -1.350000e+01 0.000000e+00
2.750000e+01 -1.350000e+01 0.000000e+00
2.700000e+01 -1.350000e+01 0.000000e+00
2.650000e+01 -1.350000e+01 0.000000e+00
2.600000e+01 -1.350000e+01 0.000000e+00
2.550000e+01 -1.350000e+01 0.000000e+00
2.500000e+01 -1.350000e+01 0.000000e+00
2.450000e+01 -1.350000e+01 0.000000e+00
2.400000e+01 -1.350000e+01 0.000000e+00
2.350000e+01 -1.350000e+01 0.000000e+00
2.300000e+01 -1.350000e+01 0.000000e+00
2.250000e+01 -1.350000e+01 0.000000e+00
2.200000e+01 -1.350000e+01 0.000000e+00
2.150000e+01 -1.350000e+01 0.000000e+00
2.100000e+01 -1.350000e+01 0.000000e+00
2.050000e+01 -1.350000e+01 0.000000e+00
2.000000e+01 -1.350000e+01 0.000000e+00
1.950000e+01 -1.350000e+01 0.000000e+00
1.900000e+01 -1.350000e+01 0.000000e+00
1.850000e+01 -1.350000e+01 0.000000e+00
1.800000e+01 -1.350000e+01 0.000000e+00
1.750000e+01 -1.350000e+01 0.000000e+00
1.700000e+01 -1.350000e+01 0.000000e+00
1.650000e+01 -1.350000e+01 0.000000e+00
1.600000e+01 -1.350000e+01 0.000000e+00
1.550000e+01 -1.350000e+01 0.000000e+00
1.500000e+01 -1.350000e+01 0.000000e+00
3.000000e+01 -1.400000e+01 0.000000e+00
2.950000e+01 -1.400000e+01 0.000000e+00
2.900000e+01 -1.400000e+01 0.000000e+00
2.850000e+01 -1.400000e+01 0.000000e+00
2.800000e+01 -1.400000e+01 0.000000e+00
2.750000e+01 -1.400000e+01 0.000000e+00
2.700000e+01 -1.400000e+01 0.000000e+00
2.650000e+01 -1.400000e+01 0.000000e+00
2.600000e+01 -1.400000e+01 0.000000e+00
2.550000e+01 -1.400000e+01 0.000000e+00
2.500000e+01 -1.400000e+01 0.000000e+00
2.450000e+01 -1.400000e+01 0.000000e+00
2.400000e+01 -1.400000e+01 0.000000e+00
2.350000e+01 -1.400000e+01 0.000000e+00
2.300000e+01 -1.400000e+01 0.000000e+00
2.250000e+01 -1.400000e+01 0.000000e+00
2.200000e+01 -1.400000e+01 0.000000e+00
2.150000e+01 -1.400000e+01 0.000000e+00
2.100000e+01 -1.400000e+01 0.000000e+00
2.050000e+01 -1.400000e+01 0.000000e+00
2.000000e+01 -1.400000e+01 0.000000e+00
1.950000e+01 -1.400000e+01 0.000000e+00
1.900000e+01 -1.400000e+01 0.000000e+00
1.850000e+01 -1.400000e+01 0.000000e+00
1.800000e+01 -1.400000e+01 0.000000e+00
1.750000e+01 -1.400000e+01 0.000000e+00
1.700000e+01 -1.400000e+01 0.000000e+00
1.650000e+01 -1.400000e+01 0.000000e+00
1.600000e+01 -1.400000e+01 0.000000e+00
1.550000e+01 -1.400000e+01 0.000000e+00
1.500000e+01 -1.400000e+01 0.000000e+00
3.000000e+01 -1.450000e+01 0.000000e+00
2.950000e+01 -1.450000e+01 0.000000e+00
2.900000e+01 -1.450000e+01 0.000000e+00
2.850000e+01 -1.450000e+01 0.000000e+00
2.800000e+01 -1.450000e+01 0.000000e+00
2.750000e+01 -1.450000e+01 0.000000e+00
2.700000e+01 -1.450000e+01 0.000000e+00
2.650000e+01 -1.450000e+01 0.000000e+00
2.600000e+01 -1.450000e+01 0.000000e+00
2.550000e+01 -1.450000e+01 0.000000e+00
2.500000e+01 -1.450000e+01 0.000000e+00
2.450000e+01 -1.450000e+01 0.000000e+00
2.400000e+01 -1.450000e+01 0.000000e+00
2.350000e+01 -1.450000e+01 0.000000e+00
2.300000e+01 -1.450000e+01 0.000000e+00
2.250000e+01 -1.450000e+01 0.000000e+00
2.200000e+01 -1.450000e+01 0.000000e+00
2.150000e+01 -1.450000e+01 0.000000e+00
2.100000e+01 -1.450000e+01 0.000000e+00
2.050000e+01 -1.450000e+01 0.000000e+00
2.000000e+01 -1.450000e+01 0.000000e+00
1.950000e+01 -1.450000e+01 0.000000e+00
1.900000e+01 -1.450000e+01 0.000000e+00
1.850000e+01 -1.450000e+01 0.000000e+00
1.800000e+01 -1.450000e+01 0.000000e+00
1.750000e+01 -1.450000e+01 0.000000e+00
1.700000e+01 -1.450000e+01 0.000000e+00
1.650000e+01 -1.450000e+01 0.000000e+00
1.600000e+01 -1.450000e+01 0.000000e+00
1.550000e+01 -1.450000e+01 0.000000e+00
1.500000e+01 -1.450000e+01 0.000000e+00
3.000000e+01 -1.500000e+01 0.000000e+00
2.950000e+01 -1.500000e+01 0.000000e+00
2.900000e+01 -1.500000e+01 0.000000e+00
2.850000e+01 -1.500000e+01 0.000000e+00
2.800000e+01 -1.500000e+01 0.000000e+00
2.750000e+01 -1.500000e+01 0.000000e+00
2.700000e+01 -1.500000e+01 0.000000e+00
2.650000e+01 -1.500000e+01 0.000000e+00
2.600000e+01 -1.500000e+01 0.000000e+00
2.550000e+01 -1.500000e+01 0.000000e+00
2.500000e+01 -1.500000e+01 0.000000e+00
2.450000e+01 -1.500000e+01 0.000000e+00
2.400000e+01 -1.500000e+01 0.000000e+00
2.350000e+01 -1.500000e+01 0.000000e+00
2.300000e+01 -1.500000e+01 0.000000e+00
2.250000e+01 -1.500000e+01 0.000000e+00
2.200000e+01 -1.500000e+01 0.000000e+00
2.150000e+01 -1.500000e+01 0.000000e+00
2.100000e+01 -1.500000e+01 0.000000e+00
2.050000e+01 -1.500000e+01 0.000000e+00
2.000000e+01 -1.500000e+01 0.000000e+00
1.950000e+01 -1.500000e+01 0.000000e+00
1.900000e+01 -1.500000e+01 0.000000e+00
1.850000e+01 -1.500000e+01 0.000000e+00
1.800000e+01 -1.500000e+01 0.000000e+00
1.750000e+01 -1.500000e+01 0.000000e+00
1.700000e+01 -1.500000e+01 0.000000e+00
1.650000e+01 -1.500000e+01 0.000000e+00
1.600000e+01 -1.500000e+01 0.000000e+00
1.550000e+01 -1.500000e+01 0.000000e+00
1.500000e+01 -1.500000e+01 0.000000e+00
2.975000e+01 1.500000e+01 0.000000e+00
2.950000e+01 1.475000e+01 0.000000e+00
2.975000e+01 1.450000e+01 0.000000e+00
3.000000e+01 1.475000e+01 0.000000e+00
2.925000e+01 1.500000e+01 0.000000e+00
2.900000e+01 1.475000e+01 0.000000e+00
2.925000e+01 1.450000e+01 0.000000e+00
2.875000e+01 1.500000e+01 0.000000e+00
2.850000e+01 1.475000e+01 0.000000e+00
2.875000e+01 1.450000e+01 0.000000e+00
2.825000e+01 1.500000e+01 0.000000e+00
2.800000e+01 1.475000e+01 0.000000e+00
2.825000e+01 1.450000e+01 0.000000e+00
2.775000e+01 1.500000e+01 0.000000e+00
2.750000e+01 1.475000e+01 0.000000e+00
2.775000e+01 1.450000e+01 0.000000e+00
2.725000e+01 1.500000e+01 0.000000e+00
2.700000e+01 1.475000e+01 0.000000e+00
2.725000e+01 1.450000e+01 0.000000e+00
2.675000e+01 1.500000e+01 0.000000e+00
2.650000e+01 1.475000e+01 0.000000e+00
2.675000e+01 1.450000e+01 0.000000e+00
2.625000e+01 1.500000e+01 0.000000e+00
2.600000e+01 1.475000e+01 0.000000e+00
2.625000e+01 1.450000e+01 0.000000e+00
2.575000e+01 1.500000e+01 0.000000e+00
2.550000e+01 1.475000e+01 0.000000e+00
2.575000e+01 1.450000e+01 0.000000e+00
2.525000e+01 1.500000e+01 0.000000e+00
2.500000e+01 1.475000e+01 0.000000e+00
2.525000e+01 1.450000e+01 0.000000e+00
2.475000e+01 1.500000e+01 0.000000e+00
2.450000e+01 1.475000e+01 0.000000e+00
2.475000e+01 1.450000e+01 0.000000e+00
2.425000e+01 1.500000e+01 0.000000e+00
2.400000e+01 1.475000e+01 0.000000e+00
2.425000e+01 1.450000e+01 0.000000e+00
2.375000e+01 1.500000e+01 0.000000e+00
2.350000e+01 1.475000e+01 0.000000e+00
2.375000e+01 1.450000e+01 0.000000e+00
2.325000e+01 1.500000e+01 0.000000e+00
2.300000e+01 1.475000e+01 0.000000e+00
2.325000e+01 1.450000e+01 0.000000e+00
2.275000e+01 1.500000e+01 0.000000e+00
2.250000e+01 1.475000e+01 0.000000e+00
2.275000e+01 1.450000e+01 0.000000e+00
2.225000e+01 1.500000e+01 0.000000e+00
2.200000e+01 1.475000e+01 0.000000e+00
2.225000e+01 1.450000e+01 0.000000e+00
2.175000e+01 1.500000e+01 0.000000e+00
2.150000e+01 1.475000e+01 0.000000e+00
2.175000e+01 1.450000e+01 0.000000e+00
2.125000e+01 1.500000e+01 0.000000e+00
2.100000e+01 1.475000e+01 0.000000e+00
2.125000e+01 1.450000e+01 0.000000e+00
2.075000e+01 1.500000e+01 0.000000e+00
2.050000e+01 1.475000e+01 0.000000e+00
2.075000e+01 1.450000e+01 0.000000e+00
2.025000e+01 1.500000e+01 0.000000e+00
2.000000e+01 1.475000e+01 0.000000e+00
2.025000e+01 1.450000e+01 0.000000e+00
1.975000e+01 1.500000e+01 0.000000e+00
1.950000e+01 1.475000e+01 0.000000e+00
1.975000e+01 1.450000e+01 0.000000e+00
1.925000e+01 1.500000e+01 0.000000e+00
1.900000e+01 1.475000e+01 0.000000e+00
1.925000e+01 1.450000e+01 0.000000e+00
1.875000e+01 1.500000e+01 0.000000e+00
1.850000e+01 1.475000e+01 0.000000e+00
1.875000e+01 1.450000e+01 0.000000e+00
1.825000e+01 1.500000e+01 0.000000e+00
1.800000e+01 1.475000e+01 0.000000e+00
1.825000e+01 1.450000e+01 0.000000e+00
1.775000e+01 1.500000e+01 0.000000e+00
1.750000e+01 1.475000e+01 0.000000e+00
1.775000e+01 1.450000e+01 0.000000e+00
1.725000e+01 1.500000e+01 0.000000e+00
1.700000e+01 1.475000e+01 0.000000e+00
1.725000e+01 1.450000e+01 0.000000e+00
1.675000e+01 1.500000e+01 0.000000e+00
1.650000e+01 1.475000e+01 0.000000e+00
1.675000e+01 1.450000e+01 0.000000e+00
1.625000e+01 1.500000e+01 0.000000e+00
1.600000e+01 1.475000e+01 0.000000e+00
1.625000e+01 1.450000e+01 0.000000e+00
1.575000e+01 1.500000e+01 0.000000e+00
1.550000e+01 1.475000e+01 0.000000e+00
1.575000e+01 1.450000e+01 0.000000e+00
1.525000e+01 1.500000e+01 0.000000e+00
1.500000e+01 1.475000e+01 0.000000e+00
1.525000e+01 1.450000e+01 0.000000e+00
2.950000e+01 1.425000e+01 0.000000e+00
2.975000e+01 1.400000e+01 0.000000e+00
3.000000e+01 1.425000e+01 0.000000e+00
2.900000e+01 1.425000e+01 0.000000e+00
2.925000e+01 1.400000e+01 0.000000e+00
2.850000e+01 1.425000e+01 0.000000e+00
2.875000e+01 1.400000e+01 0.000000e+00
2.800000e+01 1.425000e+01 0.000000e+00
2.825000e+01 1.400000e+01 0.000000e+00
2.750000e+01 1.425000e+01 0.000000e+00
2.775000e+01 1.400000e+01 0.000000e+00
2.700000e+01 1.425000e+01 0.000000e+00
2.725000e+01 1.400000e+01 0.000000e+00
2.650000e+01 1.425000e+01 0.000000e+00
2.675000e+01 1.400000e+01 0.000000e+00
2.600000e+01 1.425000e+01 0.000000e+00
2.625000e+01 1.400000e+01 0.000000e+00
2.550000e+01 1.425000e+01 0.000000e+00
2.575000e+01 1.400000e+01 0.000000e+00
2.500000e+01 1.425000e+01 0.000000e+00
2.525000e+01 1.400000e+01 0.000000e+00
2.450000e+01 1.425000e+01 0.000000e+00
2.475000e+01 1.400000e+01 0.000000e+00
2.400000e+01 1.425000e+01 0.000000e+00
2.425000e+01 1.400000e+01 0.000000e+00
2.350000e+01 1.425000e+01 0.000000e+00
2.375000e+01 1.400000e+01 0.000000e+00
2.300000e+01 1.425000e+01 0.000000e+00
2.325000e+01 1.400000e+01 0.000000e+00
2.250000e+01 1.425000e+01 0.000000e+00
2.275000e+01 1.400000e+01 0.000000e+00
2.200000e+01 1.425000e+01 0.000000e+00
2.225000e+01 1.400000e+01 0.000000e+00
2.150000e+01 1.425000e+01 0.000000e+00
2.175000e+01 1.400000e+01 0.000000e+00
2.100000e+01 1.425000e+01 0.000000e+00
2.125000e+01 1.400000e+01 0.000000e+00
2.050000e+01 1.425000e+01 0.000000e+00
2.075000e+01 1.400000e+01 0.000000e+00
2.000000e+01 1.425000e+01 0.000000e+00
2.025000e+01 1.400000e+01 0.000000e+00
1.950000e+01 1.425000e+01 0.000000e+00
1.975000e+01 1.400000e+01 0.000000e+00
1.900000e+01 1.425000e+01 0.000000e+00
1.925000e+01 1.400000e+01 0.000000e+00
1.850000e+01 1.425000e+01 0.000000e+00
1.875000e+01 1.400000e+01 0.000000e+00
1.800000e+01 1.425000e+01 0.000000e+00
1.825000e+01 1.400000e+01 0.000000e+00
1.750000e+01 1.425000e+01 0.000000e+00
1.775000e+01 1.400000e+01 0.000000e+00
1.700000e+01 1.425000e+01 0.000000e+00
1.725000e+01 1.400000e+01 0.000000e+00
1.650000e+01 1.425000e+01 0.000000e+00
1.675000e+01 1.400000e+01 0.000000e+00
1.600000e+01 1.425000e+01 0.000000e+00
1.625000e+01 1.400000e+01 0.000000e+00
1.550000e+01 1.425000e+01 0.000000e+00
1.575000e+01 1.400000e+01 0.000000e+00
1.500000e+01 1.425000e+01 0.000000e+00
1.525000e+01 1.400000e+01 0.000000e+00
2.950000e+01 1.375000e+01 0.000000e+00
2.975000e+01 1.350000e+01 0.000000e+00
3.000000e+01 1.375000e+01 0.000000e+00
2.900000e+01 1.375000e+01 0.000000e+00
2.925000e+01 1.350000e+01 0.000000e+00
2.850000e+01 1.375000e+01 0.000000e+00
2.875000e+01 1.350000e+01 0.000000e+00
2.800000e+01 1.375000e+01 0.000000e+00
2.825000e+01 1.350000e+01 0.000000e+00
2.750000e+01 1.375000e+01 0.000000e+00
2.775000e+01 1.350000e+01 0.000000e+00
2.700000e+01 1.375000e+01 0.000000e+00
2.725000e+01 1.350000e+01 0.000000e+00
2.650000e+01 1.375000e+01 0.000000e+00
2.675000e+01 1.350000e+01 0.000000e+00
2.600000e+01 1.375000e+01 0.000000e+00
2.625000e+01 1.350000e+01 0.000000e+00
2.550000e+01 1.375000e+01 0.000000e+00
2.575000e+01 1.350000e+01 0.000000e+00
2.500000e+01 1.375000e+01 0.000000e+00
2.525000e+01 1.350000e+01 0.000000e+00
2.450000e+01 1.375000e+01 0.000000e+00
2.475000e+01 1.350000e+01 0.000000e+00
2.400000e+01 1.375000e+01 0.000000e+00
2.425000e+01 1.350000e+01 0.000000e+00
2.350000e+01 1.375000e+01 0.000000e+00
2.375000e+01 1.350000e+01 0.000000e+00
2.300000e+01 1.375000e+01 0.000000e+00
2.325000e+01 1.350000e+01 0.000000e+00
2.250000e+01 1.375000e+01 0.000000e+00
2.275000e+01 1.350000e+01 0.000000e+00
2.200000e+01 1.375000e+01 0.000000e+00
2.225000e+01 1.350000e+01 0.000000e+00
2.150000e+01 1.375000e+01 0.000000e+00
2.175000e+01 1.350000e+01 0.000000e+00
2.100000e+01 1.375000e+01 0.000000e+00
2.125000e+01 1.350000e+01 0.000000e+00
2.050000e+01 1.375000e+01 0.000000e+00
2.075000e+01 1.350000e+01 0.000000e+00
2.000000e+01 1.375000e+01 0.000000e+00
2.025000e+01 1.350000e+01 0.000000e+00
1.950000e+01 1.375000e+01 0.000000e+00
1.975000e+01 1.350000e+01 0.000000e+00
1.900000e+01 1.375000e+01 0.000000e+00
1.925000e+01 1.350000e+01 0.000000e+00
1.850000e+01 1.375000e+01 0.000000e+00
1.875000e+01 1.350000e+01 0.000000e+00
1.800000e+01 1.375000e+01 0.000000e+00
1.825000e+01 1.350000e+01 0.000000e+00
1.750000e+01 1.375000e+01 0.000000e+00
1.775000e+01 1.350000e+01 0.000000e+00
1.700000e+01 1.375000e+01 0.000000e+00
1.725000e+01 1.350000e+01 0.000000e+00
1.650000e+01 1.375000e+01 0.000000e+00
1.675000e+01 1.350000e+01 0.000000e+00
1.600000e+01 1.375000e+01 0.000000e+00
1.625000e+01 1.350000e+01 0.000000e+00
1.550000e+01 1.375000e+01 0.000000e+00
1.575000e+01 1.350000e+01 0.000000e+00
1.500000e+01 1.375000e+01 0.000000e+00
1.525000e+01 1.350000e+01 0.000000e+00
2.950000e+01 1.325000e+01 0.000000e+00
2.975000e+01 1.300000e+01 0.000000e+00
3.000000e+01 1.325000e+01 0.000000e+00
2.900000e+01 1.325000e+01 0.000000e+00
2.925000e+01 1.300000e+01 0.000000e+00
2.850000e+01 1.325000e+01 0.000000e+00
2.875000e+01 1.300000e+01 0.000000e+00
2.800000e+01 1.325000e+01 0.000000e+00
2.825000e+01 1.300000e+01 0.000000e+00
2.750000e+01 1.325000e+01 0.000000e+00
2.775000e+01 1.300000e+01 0.000000e+00
2.700000e+01 1.325000e+01 0.000000e+00
2.725000e+01 1.300000e+01 0.000000e+00
2.650000e+01 1.325000e+01 0.000000e+00
2.675000e+01 1.300000e+01 0.000000e+00
2.600000e+01 1.325000e+01 0.000000e+00
2.625000e+01 1.300000e+01 0.000000e+00
2.550000e+01 1.325000e+01 0.000000e+00
2.575000e+01 1.300000e+01 0.000000e+00
2.500000e+01 1.325000e+01 0.000000e+00
2.525000e+01 1.300000e+01 0.000000e+00
2.450000e+01 1.325000e+01 0.000000e+00
2.475000e+01 1.300000e+01 0.000000e+00
2.400000e+01 1.325000e+01 0.000000e+00
2.425000e+01 1.300000e+01 0.000000e+00
2.350000e+01 1.325000e+01 0.000000e+00
2.375000e+01 1.300000e+01 0.000000e+00
2.300000e+01 1.325000e+01 0.000000e+00
2.325000e+01 1.300000e+01 0.000000e+00
2.250000e+01 1.325000e+01 0.000000e+00
2.275000e+01 1.300000e+01 0.000000e+00
2.200000e+01 1.325000e+01 0.000000e+00
2.225000e+01 1.300000e+01 0.000000e+00
2.150000e+01 1.325000e+01 0.000000e+00
2.175000e+01 1.300000e+01 0.000000e+00
2.100000e+01 1.325000e+01 0.000000e+00
2.125000e+01 1.300000e+01 0.000000e+00
2.050000e+01 1.325000e+01 0.000000e+00
2.075000e+01 1.300000e+01 0.000000e+00
2.000000e+01 1.325000e+01 0.000000e+00
2.025000e+01 1.300000e+01 0.000000e+00
1.950000e+01 1.325000e+01 0.000000e+00
1.975000e+01 1.300000e+01 0.000000e+00
1.900000e+01 1.325000e+01 0.000000e+00
1.925000e+01 1.300000e+01 0.000000e+00
1.850000e+01 1.325000e+01 0.000000e+00
1.875000e+01 1.300000e+01 0.000000e+00
1.800000e+01 1.325000e+01 0.000000e+00
1.825000e+01 1.300000e+01 0.000000e+00
1.750000e+01 1.325000e+01 0.000000e+00
1.775000e+01 1.300000e+01 0.000000e+00
1.700000e+01 1.325000e+01 0.000000e+00
1.725000e+01 1.300000e+01 0.000000e+00
1.650000e+01 1.325000e+01 0.000000e+00
1.675000e+01 1.300000e+01 0.000000e+00
1.600000e+01 1.325000e+01 0.000000e+00
1.625000e+01 1.300000e+01 0.000000e+00
1.550000e+01 1.325000e+01 0.000000e+00
1.575000e+01 1.300000e+01 0.000000e+00
1.500000e+01 1.325000e+01 0.000000e+00
1.525000e+01 1.300000e+01 0.000000e+00
2.950000e+01 1.275000e+01 0.000000e+00
2.975000e+01 1.250000e+01 0.000000e+00
3.000000e+01 1.275000e+01 0.000000e+00
2.900000e+01 1.275000e+01 0.000000e+00
2.925000e+01 1.250000e+01 0.000000e+00
2.850000e+01 1.275000e+01 0.000000e+00
2.875000e+01 1.250000e+01 0.000000e+00
2.800000e+01 1.275000e+01 0.000000e+00
2.825000e+01 1.250000e+01 0.000000e+00
2.750000e+01 1.275000e+01 0.000000e+00
2.775000e+01 1.250000e+01 0.000000e+00
2.700000e+01 1.275000e+01 0.000000e+00
2.725000e+01 1.250000e+01 0.000000e+00
2.650000e+01 1.275000e+01 0.000000e+00
2.675000e+01 1.250000e+01 0.000000e+00
2.600000e+01 1.275000e+01 0.000000e+00
2.625000e+01 1.250000e+01 0.000000e+00
2.550000e+01 1.275000e+01 0.000000e+00
2.575000e+01 1.250000e+01 0.000000e+00
2.500000e+01 1.275000e+01 0.000000e+00
2.525000e+01 1.250000e+01 0.000000e+00
2.450000e+01 1.275000e+01 0.000000e+00
2.475000e+01 1.250000e+01 0.000000e+00
2.400000e+01 1.275000e+01 0.000000e+00
2.425000e+01 1.250000e+01 0.000000e+00
2.350000e+01 1.275000e+01 0.000000e+00
2.375000e+01 1.250000e+01 0.000000e+00
2.300000e+01 1.275000e+01 0.000000e+00
2.325000e+01 1.250000e+01 0.000000e+00
2.250000e+01 1.275000e+01 0.000000e+00
2.275000e+01 1.250000e+01 0.000000e+00
2.200000e+01 1.275000e+01 0.000000e+00
2.225000e+01 1.250000e+01 0.000000e+00
2.150000e+01 1.275000e+01 0.000000e+00
2.175000e+01 1.250000e+01 0.000000e+00
2.100000e+01 1.275000e+01 0.000000e+00
2.125000e+01 1.250000e+01 0.000000e+00
2.050000e+01 1.275000e+01 0.000000e+00
2.075000e+01 1.250000e+01 0.000000e+00
2.000000e+01 1.275000e+01 0.000000e+00
2.025000e+01 1.250000e+01 0.000000e+00
1.950000e+01 1.275000e+01 0.000000e+00
1.975000e+01 1.250000e+01 0.000000e+00
1.900000e+01 1.275000e+01 0.000000e+00
1.925000e+01 1.250000e+01 0.000000e+00
1.850000e+01 1.275000e+01 0.000000e+00
1.875000e+01 1.250000e+01 0.000000e+00
1.800000e+01 1.275000e+01 0.000000e+00
1.825000e+01 1.250000e+01 0.000000e+00
1.750000e+01 1.275000e+01 0.000000e+00
1.775000e+01 1.250000e+01 0.000000e+00
1.700000e+01 1.275000e+01 0.000000e+00
1.725000e+01 1.250000e+01 0.000000e+00
1.650000e+01 1.275000e+01 0.000000e+00
1.675000e+01 1.250000e+01 0.000000e+00
1.600000e+01 1.275000e+01 0.000000e+00
1.625000e+01 1.250000e+01 0.000000e+00
1.550000e+01 1.275000e+01 0.000000e+00
1.575000e+01 1.250000e+01 0.000000e+00
1.500000e+01 1.275000e+01 0.000000e+00
1.525000e+01 1.250000e+01 0.000000e+00
2.950000e+01 1.225000e+01 0.000000e+00
2.975000e+01 1.200000e+01 0.000000e+00
3.000000e+01 1.225000e+01 0.000000e+00
2.900000e+01 1.225000e+01 0.000000e+00
2.925000e+01 1.200000e+01 0.000000e+00
2.850000e+01 1.225000e+01 0.000000e+00
2.875000e+01 1.200000e+01 0.000000e+00
2.800000e+01 1.225000e+01 0.000000e+00
2.825000e+01 1.200000e+01 0.000000e+00
2.750000e+01 1.225000e+01 0.000000e+00
2.775000e+01 1.200000e+01 0.000000e+00
2.700000e+01 1.225000e+01 0.000000e+00
2.725000e+01 1.200000e+01 0.000000e+00
2.650000e+01 1.225000e+01 0.000000e+00
2.675000e+01 1.200000e+01 0.000000e+00
2.600000e+01 1.225000e+01 0.000000e+00
2.625000e+01 1.200000e+01 0.000000e+00
2.550000e+01 1.225000e+01 0.000000e+00
2.575000e+01 1.200000e+01 0.000000e+00
2.500000e+01 1.225000e+01 0.000000e+00
2.525000e+01 1.200000e+01 0.000000e+00
2.450000e+01 1.225000e+01 0.000000e+00
2.475000e+01 1.200000e+01 0.000000e+00
2.400000e+01 1.225000e+01 0.000000e+00
2.425000e+01 1.200000e+01 0.000000e+00
2.350000e+01 1.225000e+01 0.000000e+00
2.375000e+01 1.200000e+01 0.000000e+00
2.300000e+01 1.225000e+01 0.000000e+00
2.325000e+01 1.200000e+01 0.000000e+00
2.250000e+01 1.225000e+01 0.000000e+00
2.275000e+01 1.200000e+01 0.000000e+00
2.200000e+01 1.225000e+01 0.000000e+00
2.225000e+01 1.200000e+01 0.000000e+00
2.150000e+01 1.225000e+01 0.000000e+00
2.175000e+01 1.200000e+01 0.000000e+00
2.100000e+01 1.225000e+01 0.000000e+00
2.125000e+01 1.200000e+01 0.000000e+00
2.050000e+01 1.225000e+01 0.000000e+00
2.075000e+01 1.200000e+01 0.000000e+00
2.000000e+01 1.225000e+01 0.000000e+00
2.025000e+01 1.200000e+01 0.000000e+00
1.950000e+01 1.225000e+01 0.000000e+00
1.975000e+01 1.200000e+01 0.000000e+00
1.900000e+01 1.225000e+01 0.000000e+00
1.925000e+01 1.200000e+01 0.000000e+00
1.850000e+01 1.225000e+01 0.000000e+00
1.875000e+01 1.200000e+01 0.000000e+00
1.800000e+01 1.225000e+01 0.000000e+00
1.825000e+01 1.200000e+01 0.000000e+00
1.750000e+01 1.225000e+01 0.000000e+00
1.775000e+01 1.200000e+01 0.000000e+00
1.700000e+01 1.225000e+01 0.000000e+00
1.725000e+01 1.200000e+01 0.000000e+00
1.650000e+01 1.225000e+01 0.000000e+00
1.675000e+01 1.200000e+01 0.000000e+00
1.600000e+01 1.225000e+01 0.000000e+00
1.625000e+01 1.200000e+01 0.000000e+00
1.550000e+01 1.225000e+01 0.000000e+00
1.575000e+01 1.200000e+01 0.000000e+00
1.500000e+01 1.225000e+01 0.000000e+00
1.525000e+01 1.200000e+01 0.000000e+00
2.950000e+01 1.175000e+01 0.000000e+00
2.975000e+01 1.150000e+01 0.000000e+00
3.000000e+01 1.175000e+01 0.000000e+00
2.900000e+01 1.175000e+01 0.000000e+00
2.925000e+01 1.150000e+01 0.000000e+00
2.850000e+01 1.175000e+01 0.000000e+00
2.875000e+01 1.150000e+01 0.000000e+00
2.800000e+01 1.175000e+01 0.000000e+00
2.825000e+01 1.150000e+01 0.000000e+00
2.750000e+01 1.175000e+01 0.000000e+00
2.775000e+01 1.150000e+01 0.000000e+00
2.700000e+01 1.175000e+01 0.000000e+00
2.725000e+01 1.150000e+01 0.000000e+00
2.650000e+01 1.175000e+01 0.000000e+00
2.675000e+01 1.150000e+01 0.000000e+00
2.600000e+01 1.175000e+01 0.000000e+00
2.625000e+01 1.150000e+01 0.000000e+00
2.550000e+01 1.175000e+01 0.000000e+00
2.575000e+01 1.150000e+01 0.000000e+00
2.500000e+01 1.175000e+01 0.000000e+00
2.525000e+01 1.150000e+01 0.000000e+00
2.450000e+01 1.175000e+01 0.000000e+00
2.475000e+01 1.150000e+01 0.000000e+00
2.400000e+01 1.175000e+01 0.000000e+00
2.425000e+01 1.150000e+01 0.000000e+00
2.350000e+01 1.175000e+01 0.000000e+00
2.375000e+01 1.150000e+01 0.000000e+00
2.300000e+01 1.175000e+01 0.000000e+00
2.325000e+01 1.150000e+01 0.000000e+00
2.250000e+01 1.175000e+01 0.000000e+00
2.275000e+01 1.150000e+01 0.000000e+00
2.200000e+01 1.175000e+01 0.000000e+00
2.225000e+01 1.150000e+01 0.000000e+00
2.150000e+01 1.175000e+01 0.000000e+00
2.175000e+01 1.150000e+01 0.000000e+00
2.100000e+01 1.175000e+01 0.000000e+00
2.125000e+01 1.150000e+01 0.000000e+00
2.050000e+01 1.175000e+01 0.000000e+00
2.075000e+01 1.150000e+01 0.000000e+00
2.000000e+01 1.175000e+01 0.000000e+00
2.025000e+01 1.150000e+01 0.000000e+00
1.950000e+01 1.175000e+01 0.000000e+00
1.975000e+01 1.150000e+01 0.000000e+00
1.900000e+01 1.175000e+01 0.000000e+00
1.925000e+01 1.150000e+01 0.000000e+00
1.850000e+01 1.175000e+01 0.000000e+00
1.875000e+01 1.150000e+01 0.000000e+00
1.800000e+01 1.175000e+01 0.000000e+00
1.825000e+01 1.150000e+01 0.000000e+00
1.750000e+01 1.175000e+01 0.000000e+00
1.775000e+01 1.150000e+01 0.000000e+00
1.700000e+01 1.175000e+01 0.000000e+00
1.725000e+01 1.150000e+01 0.000000e+00
1.650000e+01 1.175000e+01 0.000000e+00
1.675000e+01 1.150000e+01 0.000000e+00
1.600000e+01 1.175000e+01 0.000000e+00
1.625000e+01 1.150000e+01 0.000000e+00
1.550000e+01 1.175000e+01 0.000000e+00
1.575000e+01 1.150000e+01 0.000000e+00
1.500000e+01 1.175000e+01 0.000000e+00
1.525000e+01 1.150000e+01 0.000000e+00
2.950000e+01 1.125000e+01 0.000000e+00
2.975000e+01 1.100000e+01 0.000000e+00
3.000000e+01 1.125000e+01 0.000000e+00
2.900000e+01 1.125000e+01 0.000000e+00
2.925000e+01 1.100000e+01 0.000000e+00
2.850000e+01 1.125000e+01 0.000000e+00
2.875000e+01 1.100000e+01 0.000000e+00
2.800000e+01 1.125000e+01 0.000000e+00
2.825000e+01 1.100000e+01 0.000000e+00
2.750000e+01 1.125000e+01 0.000000e+00
2.775000e+01 1.100000e+01 0.000000e+00
2.700000e+01 1.125000e+01 0.000000e+00
2.725000e+01 1.100000e+01 0.000000e+00
2.650000e+01 1.125000e+01 0.000000e+00
2.675000e+01 1.100000e+01 0.000000e+00
2.600000e+01 1.125000e+01 0.000000e+00
2.625000e+01 1.100000e+01 0.000000e+00
2.550000e+01 1.125000e+01 0.000000e+00
2.575000e+01 1.100000e+01 0.000000e+00
2.500000e+01 1.125000e+01 0.000000e+00
2.525000e+01 1.100000e+01 0.000000e+00
2.450000e+01 1.125000e+01 0.000000e+00
2.475000e+01 1.100000e+01 0.000000e+00
2.400000e+01 1.125000e+01 0.000000e+00
2.425000e+01 1.100000e+01 0.000000e+00
2.350000e+01 1.125000e+01 0.000000e+00
2.375000e+01 1.100000e+01 0.000000e+00
2.300000e+01 1.125000e+01 0.000000e+00
2.325000e+01 1.100000e+01 0.000000e+00
2.250000e+01 1.125000e+01 0.000000e+00
2.275000e+01 1.100000e+01 0.000000e+00
2.200000e+01 1.125000e+01 0.000000e+00
2.225000e+01 1.100000e+01 0.000000e+00
2.150000e+01 1.125000e+01 0.000000e+00
2.175000e+01 1.100000e+01 0.000000e+00
2.100000e+01 1.125000e+01 0.000000e+00
2.125000e+01 1.100000e+01 0.000000e+00
2.050000e+01 1.125000e+01 0.000000e+00
2.075000e+01 1.100000e+01 0.000000e+00
2.000000e+01 1.125000e+01 0.000000e+00
2.025000e+01 1.100000e+01 0.000000e+00
1.950000e+01 1.125000e+01 0.000000e+00
1.975000e+01 1.100000e+01 0.000000e+00
1.900000e+01 1.125000e+01 0.000000e+00
1.925000e+01 1.100000e+01 0.000000e+00
1.850000e+01 1.125000e+01 0.000000e+00
1.875000e+01 1.100000e+01 0.000000e+00
1.800000e+01 1.125000e+01 0.000000e+00
1.825000e+01 1.100000e+01 0.000000e+00
1.750000e+01 1.125000e+01 0.000000e+00
1.775000e+01 1.100000e+01 0.000000e+00
1.700000e+01 1.125000e+01 0.000000e+00
1.725000e+01 1.100000e+01 0.000000e+00
1.650000e+01 1.125000e+01 0.000000e+00
1.675000e+01 1.100000e+01 0.000000e+00
1.600000e+01 1.125000e+01 0.000000e+00
1.625000e+01 1.100000e+01 0.000000e+00
1.550000e+01 1.125000e+01 0.000000e+00
1.575000e+01 1.100000e+01 0.000000e+00
1.500000e+01 1.125000e+01 0.000000e+00
1.525000e+01 1.100000e+01 0.000000e+00
2.950000e+01 1.075000e+01 0.000000e+00
2.975000e+01 1.050000e+01 0.000000e+00
3.000000e+01 1.075000e+01 0.000000e+00
2.900000e+01 1.075000e+01 0.000000e+00
2.925000e+01 1.050000e+01 0.000000e+00
2.850000e+01 1.075000e+01 0.000000e+00
2.875000e+01 1.050000e+01 0.000000e+00
2.800000e+01 1.075000e+01 0.000000e+00
2.825000e+01 1.050000e+01 0.000000e+00
2.750000e+01 1.075000e+01 0.000000e+00
2.775000e+01 1.050000e+01 0.000000e+00
2.700000e+01 1.075000e+01 0.000000e+00
2.725000e+01 1.050000e+01 0.000000e+00
2.650000e+01 1.075000e+01 0.000000e+00
2.675000e+01 1.050000e+01 0.000000e+00
2.600000e+01 1.075000e+01 0.000000e+00
2.625000e+01 1.050000e+01 0.000000e+00
2.550000e+01 1.075000e+01 0.000000e+00
2.575000e+01 1.050000e+01 0.000000e+00
2.500000e+01 1.075000e+01 0.000000e+00
2.525000e+01 1.050000e+01 0.000000e+00
2.450000e+01 1.075000e+01 0.000000e+00
2.475000e+01 1.050000e+01 0.000000e+00
2.400000e+01 1.075000e+01 0.000000e+00
2.425000e+01 1.050000e+01 0.000000e+00
2.350000e+01 1.075000e+01 0.000000e+00
2.375000e+01 1.050000e+01 0.000000e+00
2.300000e+01 1.075000e+01 0.000000e+00
2.325000e+01 1.050000e+01 0.000000e+00
2.250000e+01 1.075000e+01 0.000000e+00
2.275000e+01 1.050000e+01 0.000000e+00
2.200000e+01 1.075000e+01 0.000000e+00
2.225000e+01 1.050000e+01 0.000000e+00
2.150000e+01 1.075000e+01 0.000000e+00
2.175000e+01 1.050000e+01 0.000000e+00
2.100000e+01 1.075000e+01 0.000000e+00
2.125000e+01 1.050000e+01 0.000000e+00
2.050000e+01 1.075000e+01 0.000000e+00
2.075000e+01 1.050000e+01 0.000000e+00
2.000000e+01 1.075000e+01 0.000000e+00
2.025000e+01 1.050000e+01 0.000000e+00
1.950000e+01 1.075000e+01 0.000000e+00
1.975000e+01 1.050000e+01 0.000000e+00
1.900000e+01 1.075000e+01 0.000000e+00
1.925000e+01 1.050000e+01 0.000000e+00
1.850000e+01 1.075000e+01 0.000000e+00
1.875000e+01 1.050000e+01 0.000000e+00
1.800000e+01 1.075000e+01 0.000000e+00
1.825000e+01 1.050000e+01 0.000000e+00
1.750000e+01 1.075000e+01 0.000000e+00
1.775000e+01 1.050000e+01 0.000000e+00
1.700000e+01 1.075000e+01 0.000000e+00
1.725000e+01 1.050000e+01 0.000000e+00
1.650000e+01 1.075000e+01 0.000000e+00
1.675000e+01 1.050000e+01 0.000000e+00
1.600000e+01 1.075000e+01 0.000000e+00
1.625000e+01 1.050000e+01 0.000000e+00
1.550000e+01 1.075000e+01 0.000000e+00
1.575000e+01 1.050000e+01 0.000000e+00
1.500000e+01 1.075000e+01 0.000000e+00
1.525000e+01 1.050000e+01 0.000000e+00
2.950000e+01 1.025000e+01 0.000000e+00
2.975000e+01 1.000000e+01 0.000000e+00
3.000000e+01 1.025000e+01 0.000000e+00
2.900000e+01 1.025000e+01 0.000000e+00
2.925000e+01 1.000000e+01 0.000000e+00
2.850000e+01 1.025000e+01 0.000000e+00
2.875000e+01 1.000000e+01 0.000000e+00
2.800000e+01 1.025000e+01 0.000000e+00
2.825000e+01 1.000000e+01 0.000000e+00
2.750000e+01 1.025000e+01 0.000000e+00
2.775000e+01 1.000000e+01 0.000000e+00
2.700000e+01 1.025000e+01 0.000000e+00
2.725000e+01 1.000000e+01 0.000000e+00
2.650000e+01 1.025000e+01 0.000000e+00
2.675000e+01 1.000000e+01 0.000000e+00
2.600000e+01 1.025000e+01 0.000000e+00
2.625000e+01 1.000000e+01 0.000000e+00
2.550000e+01 1.025000e+01 0.000000e+00
2.575000e+01 1.000000e+01 0.000000e+00
2.500000e+01 1.025000e+01 0.000000e+00
2.525000e+01 1.000000e+01 0.000000e+00
2.450000e+01 1.025000e+01 0.000000e+00
2.475000e+01 1.000000e+01 0.000000e+00
2.400000e+01 1.025000e+01 0.000000e+00
2.425000e+01 1.000000e+01 0.000000e+00
2.350000e+01 1.025000e+01 0.000000e+00
2.375000e+01 1.000000e+01 0.000000e+00
2.300000e+01 1.025000e+01 0.000000e+00
2.325000e+01 1.000000e+01 0.000000e+00
2.250000e+01 1.025000e+01 0.000000e+00
2.275000e+01 1.000000e+01 0.000000e+00
2.200000e+01 1.025000e+01 0.000000e+00
2.225000e+01 1.000000e+01 0.000000e+00
2.150000e+01 1.025000e+01 0.000000e+00
2.175000e+01 1.000000e+01 0.000000e+00
2.100000e+01 1.025000e+01 0.000000e+00
2.125000e+01 1.000000e+01 0.000000e+00
2.050000e+01 1.025000e+01 0.000000e+00
2.075000e+01 1.000000e+01 0.000000e+00
2.000000e+01 1.025000e+01 0.000000e+00
2.025000e+01 1.000000e+01 0.000000e+00
1.950000e+01 1.025000e+01 0.000000e+00
1.975000e+01 1.000000e+01 0.000000e+00
1.900000e+01 1.025000e+01 0.000000e+00
1.925000e+01 1.000000e+01 0.000000e+00
1.850000e+01 1.025000e+01 0.000000e+00
1.875000e+01 1.000000e+01 0.000000e+00
1.800000e+01 1.025000e+01 0.000000e+00
1.825000e+01 1.000000e+01 0.000000e+00
1.750000e+01 1.025000e+01 0.000000e+00
1.775000e+01 1.000000e+01 0.000000e+00
1.700000e+01 1.025000e+01 0.000000e+00
1.725000e+01 1.000000e+01 0.000000e+00
1.650000e+01 1.025000e+01 0.000000e+00
1.675000e+01 1.000000e+01 0.000000e+00
1.600000e+01 1.025000e+01 0.000000e+00
1.625000e+01 1.000000e+01 0.000000e+00
1.550000e+01 1.025000e+01 0.000000e+00
1.575000e+01 1.000000e+01 0.000000e+00
1.500000e+01 1.025000e+01 0.000000e+00
1.525000e+01 1.000000e+01 0.000000e+00
2.950000e+01 9.750000e+00 0.000000e+00
2.975000e+01 9.500000e+00 0.000000e+00
3.000000e+01 9.750000e+00 0.000000e+00
2.900000e+01 9.750000e+00 0.000000e+00
2.925000e+01 9.500000e+00 0.000000e+00
2.850000e+01 9.750000e+00 0.000000e+00
2.875000e+01 9.500000e+00 0.000000e+00
2.800000e+01 9.750000e+00 0.000000e+00
2.825000e+01 9.500000e+00 0.000000e+00
2.750000e+01 9.750000e+00 0.000000e+00
2.775000e+01 9.500000e+00 0.000000e+00
2.700000e+01 9.750000e+00 0.000000e+00
2.725000e+01 9.500000e+00 0.000000e+00
2.650000e+01 9.750000e+00 0.000000e+00
2.675000e+01 9.500000e+00 0.000000e+00
2.600000e+01 9.750000e+00 0.000000e+00
2.625000e+01 9.500000e+00 0.000000e+00
2.550000e+01 9.750000e+00 0.000000e+00
2.575000e+01 9.500000e+00 0.000000e+00
2.500000e+01 9.750000e+00 0.000000e+00
2.525000e+01 9.500000e+00 0.000000e+00
2.450000e+01 9.750000e+00 0.000000e+00
2.475000e+01 9.500000e+00 0.000000e+00
2.400000e+01 9.750000e+00 0.000000e+00
2.425000e+01 9.500000e+00 0.000000e+00
2.350000e+01 9.750000e+00 0.000000e+00
2.375000e+01 9.500000e+00 0.000000e+00
2.300000e+01 9.750000e+00 0.000000e+00
2.325000e+01 9.500000e+00 0.000000e+00
2.250000e+01 9.750000e+00 0.000000e+00
2.275000e+01 9.500000e+00 0.000000e+00
2.200000e+01 9.750000e+00 0.000000e+00
2.225000e+01 9.500000e+00 0.000000e+00
2.150000e+01 9.750000e+00 0.000000e+00
2.175000e+01 9.500000e+00 0.000000e+00
2.100000e+01 9.750000e+00 0.000000e+00
2.125000e+01 9.500000e+00 0.000000e+00
2.050000e+01 9.750000e+00 0.000000e+00
2.075000e+01 9.500000e+00 0.000000e+00
2.000000e+01 9.750000e+00 0.000000e+00
2.025000e+01 9.500000e+00 0.000000e+00
1.950000e+01 9.750000e+00 0.000000e+00
1.975000e+01 9.500000e+00 0.000000e+00
1.900000e+01 9.750000e+00 0.000000e+00
1.925000e+01 9.500000e+00 0.000000e+00
1.850000e+01 9.750000e+00 0.000000e+00
1.875000e+01 9.500000e+00 0.000000e+00
1.800000e+01 9.750000e+00 0.000000e+00
1.825000e+01 9.500000e+00 0.000000e+00
1.750000e+01 9.750000e+00 0.000000e+00
1.775000e+01 9.500000e+00 0.000000e+00
1.700000e+01 9.750000e+00 0.000000e+00
1.725000e+01 9.500000e+00 0.000000e+00
1.650000e+01 9.750000e+00 0.000000e+00
1.675000e+01 9.500000e+00 0.000000e+00
1.600000e+01 9.750000e+00 0.000000e+00
1.625000e+01 9.500000e+00 0.000000e+00
1.550000e+01 9.750000e+00 0.000000e+00
1.575000e+01 9.500000e+00 0.000000e+00
1.500000e+01 9.750000e+00 0.000000e+00
1.525000e+01 9.500000e+00 0.000000e+00
2.950000e+01 9.250000e+00 0.000000e+00
2.975000e+01 9.000000e+00 0.000000e+00
3.000000e+01 9.250000e+00 0.000000e+00
2.900000e+01 9.250000e+00 0.000000e+00
2.925000e+01 9.000000e+00 0.000000e+00
2.850000e+01 9.250000e+00 0.000000e+00
2.875000e+01 9.000000e+00 0.000000e+00
2.800000e+01 9.250000e+00 0.000000e+00
2.825000e+01 9.000000e+00 0.000000e+00
2.750000e+01 9.250000e+00 0.000000e+00
2.775000e+01 9.000000e+00 0.000000e+00
2.700000e+01 9.250000e+00 0.000000e+00
2.725000e+01 9.000000e+00 0.000000e+00
2.650000e+01 9.250000e+00 0.000000e+00
2.675000e+01 9.000000e+00 0.000000e+00
2.600000e+01 9.250000e+00 0.000000e+00
2.625000e+01 9.000000e+00 0.000000e+00
2.550000e+01 9.250000e+00 0.000000e+00
2.575000e+01 9.000000e+00 0.000000e+00
2.500000e+01 9.250000e+00 0.000000e+00
2.525000e+01 9.000000e+00 0.000000e+00
2.450000e+01 9.250000e+00 0.000000e+00
2.475000e+01 9.000000e+00 0.000000e+00
2.400000e+01 9.250000e+00 0.000000e+00
2.425000e+01 9.000000e+00 0.000000e+00
2.350000e+01 9.250000e+00 0.000000e+00
2.375000e+01 9.000000e+00 0.000000e+00
2.300000e+01 9.250000e+00 0.000000e+00
2.325000e+01 9.000000e+00 0.000000e+00
2.250000e+01 9.250000e+00 0.000000e+00
2.275000e+01 9.000000e+00 0.000000e+00
2.200000e+01 9.250000e+00 0.000000e+00
2.225000e+01 9.000000e+00 0.000000e+00
2.150000e+01 9.250000e+00 0.000000e+00
2.175000e+01 9.000000e+00 0.000000e+00
2.100000e+01 9.250000e+00 0.000000e+00
2.125000e+01 9.000000e+00 0.000000e+00
2.050000e+01 9.250000e+00 0.000000e+00
2.075000e+01 9.000000e+00 0.000000e+00
2.000000e+01 9.250000e+00 0.000000e+00
2.025000e+01 9.000000e+00 0.000000e+00
1.950000e+01 9.250000e+00 0.000000e+00
1.975000e+01 9.000000e+00 0.000000e+00
1.900000e+01 9.250000e+00 0.000000e+00
1.925000e+01 9.000000e+00 0.000000e+00
1.850000e+01 9.250000e+00 0.000000e+00
1.875000e+01 9.000000e+00 0.000000e+00
1.800000e+01 9.250000e+00 0.000000e+00
1.825000e+01 9.000000e+00 0.000000e+00
1.750000e+01 9.250000e+00 0.000000e+00
1.775000e+01 9.000000e+00 0.000000e+00
1.700000e+01 9.250000e+00 0.000000e+00
1.725000e+01 9.000000e+00 0.000000e+00
1.650000e+01 9.250000e+00 0.000000e+00
1.675000e+01 9.000000e+00 0.000000e+00
1.600000e+01 9.250000e+00 0.000000e+00
1.625000e+01 9.000000e+00 0.000000e+00
1.550000e+01 9.250000e+00 0.000000e+00
1.575000e+01 9.000000e+00 0.000000e+00
1.500000e+01 9.250000e+00 0.000000e+00
1.525000e+01 9.000000e+00 0.000000e+00
2.950000e+01 8.750000e+00 0.000000e+00
2.975000e+01 8.500000e+00 0.000000e+00
3.000000e+01 8.750000e+00 0.000000e+00
2.900000e+01 8.750000e+00 0.000000e+00
2.925000e+01 8.500000e+00 0.000000e+00
2.850000e+01 8.750000e+00 0.000000e+00
2.875000e+01 8.500000e+00 0.000000e+00
2.800000e+01 8.750000e+00 0.000000e+00
2.825000e+01 8.500000e+00 0.000000e+00
2.750000e+01 8.750000e+00 0.000000e+00
2.775000e+01 8.500000e+00 0.000000e+00
2.700000e+01 8.750000e+00 0.000000e+00
2.725000e+01 8.500000e+00 0.000000e+00
2.650000e+01 8.750000e+00 0.000000e+00
2.675000e+01 8.500000e+00 0.000000e+00
2.600000e+01 8.750000e+00 0.000000e+00
2.625000e+01 8.500000e+00 0.000000e+00
2.550000e+01 8.750000e+00 0.000000e+00
2.575000e+01 8.500000e+00 0.000000e+00
2.500000e+01 8.750000e+00 0.000000e+00
2.525000e+01 8.500000e+00 0.000000e+00
2.450000e+01 8.750000e+00 0.000000e+00
2.475000e+01 8.500000e+00 0.000000e+00
2.400000e+01 8.750000e+00 0.000000e+00
2.425000e+01 8.500000e+00 0.000000e+00
2.350000e+01 8.750000e+00 0.000000e+00
2.375000e+01 8.500000e+00 0.000000e+00
2.300000e+01 8.750000e+00 0.000000e+00
2.325000e+01 8.500000e+00 0.000000e+00
2.250000e+01 8.750000e+00 0.000000e+00
2.275000e+01 8.500000e+00 0.000000e+00
2.200000e+01 8.750000e+00 0.000000e+00
2.225000e+01 8.500000e+00 0.000000e+00
2.150000e+01 8.750000e+00 0.000000e+00
2.175000e+01 8.500000e+00 0.000000e+00
2.100000e+01 8.750000e+00 0.000000e+00
2.125000e+01 8.500000e+00 0.000000e+00
2.050000e+01 8.750000e+00 0.000000e+00
2.075000e+01 8.500000e+00 0.000000e+00
2.000000e+01 8.750000e+00 0.000000e+00
2.025000e+01 8.500000e+00 0.000000e+00
1.950000e+01 8.750000e+00 0.000000e+00
1.975000e+01 8.500000e+00 0.000000e+00
1.900000e+01 8.750000e+00 0.000000e+00
1.925000e+01 8.500000e+00 0.000000e+00
1.850000e+01 8.750000e+00 0.000000e+00
1.875000e+01 8.500000e+00 0.000000e+00
1.800000e+01 8.750000e+00 0.000000e+00
1.825000e+01 8.500000e+00 0.000000e+00
1.750000e+01 8.750000e+00 0.000000e+00
1.775000e+01 8.500000e+00 0.000000e+00
1.700000e+01 8.750000e+00 0.000000e+00
1.725000e+01 8.500000e+00 0.000000e+00
1.650000e+01 8.750000e+00 0.000000e+00
1.675000e+01 8.500000e+00 0.000000e+00
1.600000e+01 8.750000e+00 0.000000e+00
1.625000e+01 8.500000e+00 0.000000e+00
1.550000e+01 8.750000e+00 0.000000e+00
1.575000e+01 8.500000e+00 0.000000e+00
1.500000e+01 8.750000e+00 0.000000e+00
1.525000e+01 8.500000e+00 0.000000e+00
2.950000e+01 8.250000e+00 0.000000e+00
2.975000e+01 8.000000e+00 0.000000e+00
3.000000e+01 8.250000e+00 0.000000e+00
2.900000e+01 8.250000e+00 0.000000e+00
2.925000e+01 8.000000e+00 0.000000e+00
2.850000e+01 8.250000e+00 0.000000e+00
2.875000e+01 8.000000e+00 0.000000e+00
2.800000e+01 8.250000e+00 0.000000e+00
2.825000e+01 8.000000e+00 0.000000e+00
2.750000e+01 8.250000e+00 0.000000e+00
2.775000e+01 8.000000e+00 0.000000e+00
2.700000e+01 8.250000e+00 0.000000e+00
2.725000e+01 8.000000e+00 0.000000e+00
2.650000e+01 8.250000e+00 0.000000e+00
2.675000e+01 8.000000e+00 0.000000e+00
2.600000e+01 8.250000e+00 0.000000e+00
2.625000e+01 8.000000e+00 0.000000e+00
2.550000e+01 8.250000e+00 0.000000e+00
2.575000e+01 8.000000e+00 0.000000e+00
2.500000e+01 8.250000e+00 0.000000e+00
2.525000e+01 8.000000e+00 0.000000e+00
2.450000e+01 8.250000e+00 0.000000e+00
2.475000e+01 8.000000e+00 0.000000e+00
2.400000e+01 8.250000e+00 0.000000e+00
2.425000e+01 8.000000e+00 0.000000e+00
2.350000e+01 8.250000e+00 0.000000e+00
2.375000e+01 8.000000e+00 0.000000e+00
2.300000e+01 8.250000e+00 0.000000e+00
2.325000e+01 8.000000e+00 0.000000e+00
2.250000e+01 8.250000e+00 0.000000e+00
2.275000e+01 8.000000e+00 0.000000e+00
2.200000e+01 8.250000e+00 0.000000e+00
2.225000e+01 8.000000e+00 0.000000e+00
2.150000e+01 8.250000e+00 0.000000e+00
2.175000e+01 8.000000e+00 0.000000e+00
2.100000e+01 8.250000e+00 0.000000e+00
2.125000e+01 8.000000e+00 0.000000e+00
2.050000e+01 8.250000e+00 0.000000e+00
2.075000e+01 8.000000e+00 0.000000e+00
2.000000e+01 8.250000e+00 0.000000e+00
2.025000e+01 8.000000e+00 0.000000e+00
1.950000e+01 8.250000e+00 0.000000e+00
1.975000e+01 8.000000e+00 0.000000e+00
1.900000e+01 8.250000e+00 0.000000e+00
1.925000e+01 8.000000e+00 0.000000e+00
1.850000e+01 8.250000e+00 0.000000e+00
1.875000e+01 8.000000e+00 0.000000e+00
1.800000e+01 8.250000e+00 0.000000e+00
1.825000e+01 8.000000e+00 0.000000e+00
1.750000e+01 8.250000e+00 0.000000e+00
1.775000e+01 8.000000e+00 0.000000e+00
1.700000e+01 8.250000e+00 0.000000e+00
1.725000e+01 8.000000e+00 0.000000e+00
1.650000e+01 8.250000e+00 0.000000e+00
1.675000e+01 8.000000e+00 0.000000e+00
1.600000e+01 8.250000e+00 0.000000e+00
1.625000e+01 8.000000e+00 0.000000e+00
1.550000e+01 8.250000e+00 0.000000e+00
1.575000e+01 8.000000e+00 0.000000e+00
1.500000e+01 8.250000e+00 0.000000e+00
1.525000e+01 8.000000e+00 0.000000e+00
2.950000e+01 7.750000e+00 0.000000e+00
2.975000e+01 7.500000e+00 0.000000e+00
3.000000e+01 7.750000e+00 0.000000e+00
2.900000e+01 7.750000e+00 0.000000e+00
2.925000e+01 7.500000e+00 0.000000e+00
2.850000e+01 7.750000e+00 0.000000e+00
2.875000e+01 7.500000e+00 0.000000e+00
2.800000e+01 7.750000e+00 0.000000e+00
2.825000e+01 7.500000e+00 0.000000e+00
2.750000e+01 7.750000e+00 0.000000e+00
2.775000e+01 7.500000e+00 0.000000e+00
2.700000e+01 7.750000e+00 0.000000e+00
2.725000e+01 7.500000e+00 0.000000e+00
2.650000e+01 7.750000e+00 0.000000e+00
2.675000e+01 7.500000e+00 0.000000e+00
2.600000e+01 7.750000e+00 0.000000e+00
2.625000e+01 7.500000e+00 0.000000e+00
2.550000e+01 7.750000e+00 0.000000e+00
2.575000e+01 7.500000e+00 0.000000e+00
2.500000e+01 7.750000e+00 0.000000e+00
2.525000e+01 7.500000e+00 0.000000e+00
2.450000e+01 7.750000e+00 0.000000e+00
2.475000e+01 7.500000e+00 0.000000e+00
2.400000e+01 7.750000e+00 0.000000e+00
2.425000e+01 7.500000e+00 0.000000e+00
2.350000e+01 7.750000e+00 0.000000e+00
2.375000e+01 7.500000e+00 0.000000e+00
2.300000e+01 7.750000e+00 0.000000e+00
2.325000e+01 7.500000e+00 0.000000e+00
2.250000e+01 7.750000e+00 0.000000e+00
2.275000e+01 7.500000e+00 0.000000e+00
2.200000e+01 7.750000e+00 0.000000e+00
2.225000e+01 7.500000e+00 0.000000e+00
2.150000e+01 7.750000e+00 0.000000e+00
2.175000e+01 7.500000e+00 0.000000e+00
2.100000e+01 7.750000e+00 0.000000e+00
2.125000e+01 7.500000e+00 0.000000e+00
2.050000e+01 7.750000e+00 0.000000e+00
2.075000e+01 7.500000e+00 0.000000e+00
2.000000e+01 7.750000e+00 0.000000e+00
2.025000e+01 7.500000e+00 0.000000e+00
1.950000e+01 7.750000e+00 0.000000e+00
1.975000e+01 7.500000e+00 0.000000e+00
1.900000e+01 7.750000e+00 0.000000e+00
1.925000e+01 7.500000e+00 0.000000e+00
1.850000e+01 7.750000e+00 0.000000e+00
1.875000e+01 7.500000e+00 0.000000e+00
1.800000e+01 7.750000e+00 0.000000e+00
1.825000e+01 7.500000e+00 0.000000e+00
1.750000e+01 7.750000e+00 0.000000e+00
1.775000e+01 7.500000e+00 0.000000e+00
1.700000e+01 7.750000e+00 0.000000e+00
1.725000e+01 7.500000e+00 0.000000e+00
1.650000e+01 7.750000e+00 0.000000e+00
1.675000e+01 7.500000e+00 0.000000e+00
1.600000e+01 7.750000e+00 0.000000e+00
1.625000e+01 7.500000e+00 0.000000e+00
1.550000e+01 7.750000e+00 0.000000e+00
1.575000e+01 7.500000e+00 0.000000e+00
1.500000e+01 7.750000e+00 0.000000e+00
1.525000e+01 7.500000e+00 0.000000e+00
2.950000e+01 7.250000e+00 0.000000e+00
2.975000e+01 7.000000e+00 0.000000e+00
3.000000e+01 7.250000e+00 0.000000e+00
2.900000e+01 7.250000e+00 0.000000e+00
2.925000e+01 7.000000e+00 0.000000e+00
2.850000e+01 7.250000e+00 0.000000e+00
2.875000e+01 7.000000e+00 0.000000e+00
2.800000e+01 7.250000e+00 0.000000e+00
2.825000e+01 7.000000e+00 0.000000e+00
2.750000e+01 7.250000e+00 0.000000e+00
2.775000e+01 7.000000e+00 0.000000e+00
2.700000e+01 7.250000e+00 0.000000e+00
2.725000e+01 7.000000e+00 0.000000e+00
2.650000e+01 7.250000e+00 0.000000e+00
2.675000e+01 7.000000e+00 0.000000e+00
2.600000e+01 7.250000e+00 0.000000e+00
2.625000e+01 7.000000e+00 0.000000e+00
2.550000e+01 7.250000e+00 0.000000e+00
2.575000e+01 7.000000e+00 0.000000e+00
2.500000e+01 7.250000e+00 0.000000e+00
2.525000e+01 7.000000e+00 0.000000e+00
2.450000e+01 7.250000e+00 0.000000e+00
2.475000e+01 7.000000e+00 0.000000e+00
2.400000e+01 7.250000e+00 0.000000e+00
2.425000e+01 7.000000e+00 0.000000e+00
2.350000e+01 7.250000e+00 0.000000e+00
2.375000e+01 7.000000e+00 0.000000e+00
2.300000e+01 7.250000e+00 0.000000e+00
2.325000e+01 7.000000e+00 0.000000e+00
2.250000e+01 7.250000e+00 0.000000e+00
2.275000e+01 7.000000e+00 0.000000e+00
2.200000e+01 7.250000e+00 0.000000e+00
2.225000e+01 7.000000e+00 0.000000e+00
2.150000e+01 7.250000e+00 0.000000e+00
2.175000e+01 7.000000e+00 0.000000e+00
2.100000e+01 7.250000e+00 0.000000e+00
2.125000e+01 7.000000e+00 0.000000e+00
2.050000e+01 7.250000e+00 0.000000e+00
2.075000e+01 7.000000e+00 0.000000e+00
2.000000e+01 7.250000e+00 0.000000e+00
2.025000e+01 7.000000e+00 0.000000e+00
1.950000e+01 7.250000e+00 0.000000e+00
1.975000e+01 7.000000e+00 0.000000e+00
1.900000e+01 7.250000e+00 0.000000e+00
1.925000e+01 7.000000e+00 0.000000e+00
1.850000e+01 7.250000e+00 0.000000e+00
1.875000e+01 7.000000e+00 0.000000e+00
1.800000e+01 7.250000e+00 0.000000e+00
1.825000e+01 7.000000e+00 0.000000e+00
1.750000e+01 7.250000e+00 0.000000e+00
1.775000e+01 7.000000e+00 0.000000e+00
1.700000e+01 7.250000e+00 0.000000e+00
1.725000e+01 7.000000e+00 0.000000e+00
1.650000e+01 7.250000e+00 0.000000e+00
1.675000e+01 7.000000e+00 0.000000e+00
1.600000e+01 7.250000e+00 0.000000e+00
1.625000e+01 7.000000e+00 0.000000e+00
1.550000e+01 7.250000e+00 0.000000e+00
1.575000e+01 7.000000e+00 0.000000e+00
1.500000e+01 7.250000e+00 0.000000e+00
1.525000e+01 7.000000e+00 0.000000e+00
2.950000e+01 6.750000e+00 0.000000e+00
2.975000e+01 6.500000e+00 0.000000e+00
3.000000e+01 6.750000e+00 0.000000e+00
2.900000e+01 6.750000e+00 0.000000e+00
2.925000e+01 6.500000e+00 0.000000e+00
2.850000e+01 6.750000e+00 0.000000e+00
2.875000e+01 6.500000e+00 0.000000e+00
2.800000e+01 6.750000e+00 0.000000e+00
2.825000e+01 6.500000e+00 0.000000e+00
2.750000e+01 6.750000e+00 0.000000e+00
2.775000e+01 6.500000e+00 0.000000e+00
2.700000e+01 6.750000e+00 0.000000e+00
2.725000e+01 6.500000e+00 0.000000e+00
2.650000e+01 6.750000e+00 0.000000e+00
2.675000e+01 6.500000e+00 0.000000e+00
2.600000e+01 6.750000e+00 0.000000e+00
2.625000e+01 6.500000e+00 0.000000e+00
2.550000e+01 6.750000e+00 0.000000e+00
2.575000e+01 6.500000e+00 0.000000e+00
2.500000e+01 6.750000e+00 0.000000e+00
2.525000e+01 6.500000e+00 0.000000e+00
2.450000e+01 6.750000e+00 0.000000e+00
2.475000e+01 6.500000e+00 0.000000e+00
2.400000e+01 6.750000e+00 0.000000e+00
2.425000e+01 6.500000e+00 0.000000e+00
2.350000e+01 6.750000e+00 0.000000e+00
2.375000e+01 6.500000e+00 0.000000e+00
2.300000e+01 6.750000e+00 0.000000e+00
2.325000e+01 6.500000e+00 0.000000e+00
2.250000e+01 6.750000e+00 0.000000e+00
2.275000e+01 6.500000e+00 0.000000e+00
2.200000e+01 6.750000e+00 0.000000e+00
2.225000e+01 6.500000e+00 0.000000e+00
2.150000e+01 6.750000e+00 0.000000e+00
2.175000e+01 6.500000e+00 0.000000e+00
2.100000e+01 6.750000e+00 0.000000e+00
2.125000e+01 6.500000e+00 0.000000e+00
2.050000e+01 6.750000e+00 0.000000e+00
2.075000e+01 6.500000e+00 0.000000e+00
2.000000e+01 6.750000e+00 0.000000e+00
2.025000e+01 6.500000e+00 0.000000e+00
1.950000e+01 6.750000e+00 0.000000e+00
1.975000e+01 6.500000e+00 0.000000e+00
1.900000e+01 6.750000e+00 0.000000e+00
1.925000e+01 6.500000e+00 0.000000e+00
1.850000e+01 6.750000e+00 0.000000e+00
1.875000e+01 6.500000e+00 0.000000e+00
1.800000e+01 6.750000e+00 0.000000e+00
1.825000e+01 6.500000e+00 0.000000e+00
1.750000e+01 6.750000e+00 0.000000e+00
1.775000e+01 6.500000e+00 0.000000e+00
1.700000e+01 6.750000e+00 0.000000e+00
1.725000e+01 6.500000e+00 0.000000e+00
1.650000e+01 6.750000e+00 0.000000e+00
1.675000e+01 6.500000e+00 0.000000e+00
1.600000e+01 6.750000e+00 0.000000e+00
1.625000e+01 6.500000e+00 0.000000e+00
1.550000e+01 6.750000e+00 0.000000e+00
1.575000e+01 6.500000e+00 0.000000e+00
1.500000e+01 6.750000e+00 0.000000e+00
1.525000e+01 6.500000e+00 0.000000e+00
2.950000e+01 6.250000e+00 0.000000e+00
2.975000e+01 6.000000e+00 0.000000e+00
3.000000e+01 6.250000e+00 0.000000e+00
2.900000e+01 6.250000e+00 0.000000e+00
2.925000e+01 6.000000e+00 0.000000e+00
2.850000e+01 6.250000e+00 0.000000e+00
2.875000e+01 6.000000e+00 0.000000e+00
2.800000e+01 6.250000e+00 0.000000e+00
2.825000e+01 6.000000e+00 0.000000e+00
2.750000e+01 6.250000e+00 0.000000e+00
2.775000e+01 6.000000e+00 0.000000e+00
2.700000e+01 6.250000e+00 0.000000e+00
2.725000e+01 6.000000e+00 0.000000e+00
2.650000e+01 6.250000e+00 0.000000e+00
2.675000e+01 6.000000e+00 0.000000e+00
2.600000e+01 6.250000e+00 0.000000e+00
2.625000e+01 6.000000e+00 0.000000e+00
2.550000e+01 6.250000e+00 0.000000e+00
2.575000e+01 6.000000e+00 0.000000e+00
2.500000e+01 6.250000e+00 0.000000e+00
2.525000e+01 6.000000e+00 0.000000e+00
2.450000e+01 6.250000e+00 0.000000e+00
2.475000e+01 6.000000e+00 0.000000e+00
2.400000e+01 6.250000e+00 0.000000e+00
2.425000e+01 6.000000e+00 0.000000e+00
2.350000e+01 6.250000e+00 0.000000e+00
2.375000e+01 6.000000e+00 0.000000e+00
2.300000e+01 6.250000e+00 0.000000e+00
2.325000e+01 6.000000e+00 0.000000e+00
2.250000e+01 6.250000e+00 0.000000e+00
2.275000e+01 6.000000e+00 0.000000e+00
2.200000e+01 6.250000e+00 0.000000e+00
2.225000e+01 6.000000e+00 0.000000e+00
2.150000e+01 6.250000e+00 0.000000e+00
2.175000e+01 6.000000e+00 0.000000e+00
2.100000e+01 6.250000e+00 0.000000e+00
2.125000e+01 6.000000e+00 0.000000e+00
2.050000e+01 6.250000e+00 0.000000e+00
2.075000e+01 6.000000e+00 0.000000e+00
2.000000e+01 6.250000e+00 0.000000e+00
2.025000e+01 6.000000e+00 0.000000e+00
1.950000e+01 6.250000e+00 0.000000e+00
1.975000e+01 6.000000e+00 0.000000e+00
1.900000e+01 6.250000e+00 0.000000e+00
1.925000e+01 6.000000e+00 0.000000e+00
1.850000e+01 6.250000e+00 0.000000e+00
1.875000e+01 6.000000e+00 0.000000e+00
1.800000e+01 6.250000e+00 0.000000e+00
1.825000e+01 6.000000e+00 0.000000e+00
1.750000e+01 6.250000e+00 0.000000e+00
1.775000e+01 6.000000e+00 0.000000e+00
1.700000e+01 6.250000e+00 0.000000e+00
1.725000e+01 6.000000e+00 0.000000e+00
1.650000e+01 6.250000e+00 0.000000e+00
1.675000e+01 6.000000e+00 0.000000e+00
1.600000e+01 6.250000e+00 0.000000e+00
1.625000e+01 6.000000e+00 0.000000e+00
1.550000e+01 6.250000e+00 0.000000e+00
1.575000e+01 6.000000e+00 0.000000e+00
1.500000e+01 6.250000e+00 0.000000e+00
1.525000e+01 6.000000e+00 0.000000e+00
2.950000e+01 5.750000e+00 0.000000e+00
2.975000e+01 5.500000e+00 0.000000e+00
3.000000e+01 5.750000e+00 0.000000e+00
2.900000e+01 5.750000e+00 0.000000e+00
2.925000e+01 5.500000e+00 0.000000e+00
2.850000e+01 5.750000e+00 0.000000e+00
2.875000e+01 5.500000e+00 0.000000e+00
2.800000e+01 5.750000e+00 0.000000e+00
2.825000e+01 5.500000e+00 0.000000e+00
2.750000e+01 5.750000e+00 0.000000e+00
2.775000e+01 5.500000e+00 0.000000e+00
2.700000e+01 5.750000e+00 0.000000e+00
2.725000e+01 5.500000e+00 0.000000e+00
2.650000e+01 5.750000e+00 0.000000e+00
2.675000e+01 5.500000e+00 0.000000e+00
2.600000e+01 5.750000e+00 0.000000e+00
2.625000e+01 5.500000e+00 0.000000e+00
2.550000e+01 5.750000e+00 0.000000e+00
2.575000e+01 5.500000e+00 0.000000e+00
2.500000e+01 5.750000e+00 0.000000e+00
2.525000e+01 5.500000e+00 0.000000e+00
2.450000e+01 5.750000e+00 0.000000e+00
2.475000e+01 5.500000e+00 0.000000e+00
2.400000e+01 5.750000e+00 0.000000e+00
2.425000e+01 5.500000e+00 0.000000e+00
2.350000e+01 5.750000e+00 0.000000e+00
2.375000e+01 5.500000e+00 0.000000e+00
2.300000e+01 5.750000e+00 0.000000e+00
2.325000e+01 5.500000e+00 0.000000e+00
2.250000e+01 5.750000e+00 0.000000e+00
2.275000e+01 5.500000e+00 0.000000e+00
2.200000e+01 5.750000e+00 0.000000e+00
2.225000e+01 5.500000e+00 0.000000e+00
2.150000e+01 5.750000e+00 0.000000e+00
2.175000e+01 5.500000e+00 0.000000e+00
2.100000e+01 5.750000e+00 0.000000e+00
2.125000e+01 5.500000e+00 0.000000e+00
2.050000e+01 5.750000e+00 0.000000e+00
2.075000e+01 5.500000e+00 0.000000e+00
2.000000e+01 5.750000e+00 0.000000e+00
2.025000e+01 5.500000e+00 0.000000e+00
1.950000e+01 5.750000e+00 0.000000e+00
1.975000e+01 5.500000e+00 0.000000e+00
1.900000e+01 5.750000e+00 0.000000e+00
1.925000e+01 5.500000e+00 0.000000e+00
1.850000e+01 5.750000e+00 0.000000e+00
1.875000e+01 5.500000e+00 0.000000e+00
1.800000e+01 5.750000e+00 0.000000e+00
1.825000e+01 5.500000e+00 0.000000e+00
1.750000e+01 5.750000e+00 0.000000e+00
1.775000e+01 5.500000e+00 0.000000e+00
1.700000e+01 5.750000e+00 0.000000e+00
1.725000e+01 5.500000e+00 0.000000e+00
1.650000e+01 5.750000e+00 0.000000e+00
1.675000e+01 5.500000e+00 0.000000e+00
1.600000e+01 5.750000e+00 0.000000e+00
1.625000e+01 5.500000e+00 0.000000e+00
1.550000e+01 5.750000e+00 0.000000e+00
1.575000e+01 5.500000e+00 0.000000e+00
1.500000e+01 5.750000e+00 0.000000e+00
1.525000e+01 5.500000e+00 0.000000e+00
2.950000e+01 5.250000e+00 0.000000e+00
2.975000e+01 5.000000e+00 0.000000e+00
3.000000e+01 5.250000e+00 0.000000e+00
2.900000e+01 5.250000e+00 0.000000e+00
2.925000e+01 5.000000e+00 0.000000e+00
2.850000e+01 5.250000e+00 0.000000e+00
2.875000e+01 5.000000e+00 0.000000e+00
2.800000e+01 5.250000e+00 0.000000e+00
2.825000e+01 5.000000e+00 0.000000e+00
2.750000e+01 5.250000e+00 0.000000e+00
2.775000e+01 5.000000e+00 0.000000e+00
2.700000e+01 5.250000e+00 0.000000e+00
2.725000e+01 5.000000e+00 0.000000e+00
2.650000e+01 5.250000e+00 0.000000e+00
2.675000e+01 5.000000e+00 0.000000e+00
2.600000e+01 5.250000e+00 0.000000e+00
2.625000e+01 5.000000e+00 0.000000e+00
2.550000e+01 5.250000e+00 0.000000e+00
2.575000e+01 5.000000e+00 0.000000e+00
2.500000e+01 5.250000e+00 0.000000e+00
2.525000e+01 5.000000e+00 0.000000e+00
2.450000e+01 5.250000e+00 0.000000e+00
2.475000e+01 5.000000e+00 0.000000e+00
2.400000e+01 5.250000e+00 0.000000e+00
2.425000e+01 5.000000e+00 0.000000e+00
2.350000e+01 5.250000e+00 0.000000e+00
2.375000e+01 5.000000e+00 0.000000e+00
2.300000e+01 5.250000e+00 0.000000e+00
2.325000e+01 5.000000e+00 0.000000e+00
2.250000e+01 5.250000e+00 0.000000e+00
2.275000e+01 5.000000e+00 0.000000e+00
2.200000e+01 5.250000e+00 0.000000e+00
2.225000e+01 5.000000e+00 0.000000e+00
2.150000e+01 5.250000e+00 0.000000e+00
2.175000e+01 5.000000e+00 0.000000e+00
2.100000e+01 5.250000e+00 0.000000e+00
2.125000e+01 5.000000e+00 0.000000e+00
2.050000e+01 5.250000e+00 0.000000e+00
2.075000e+01 5.000000e+00 0.000000e+00
2.000000e+01 5.250000e+00 0.000000e+00
2.025000e+01 5.000000e+00 0.000000e+00
1.950000e+01 5.250000e+00 0.000000e+00
1.975000e+01 5.000000e+00 0.000000e+00
1.900000e+01 5.250000e+00 0.000000e+00
1.925000e+01 5.000000e+00 0.000000e+00
1.850000e+01 5.250000e+00 0.000000e+00
1.875000e+01 5.000000e+00 0.000000e+00
1.800000e+01 5.250000e+00 0.000000e+00
1.825000e+01 5.000000e+00 0.000000e+00
1.750000e+01 5.250000e+00 0.000000e+00
1.775000e+01 5.000000e+00 0.000000e+00
1.700000e+01 5.250000e+00 0.000000e+00
1.725000e+01 5.000000e+00 0.000000e+00
1.650000e+01 5.250000e+00 0.000000e+00
1.675000e+01 5.000000e+00 0.000000e+00
1.600000e+01 5.250000e+00 0.000000e+00
1.625000e+01 5.000000e+00 0.000000e+00
1.550000e+01 5.250000e+00 0.000000e+00
1.575000e+01 5.000000e+00 0.000000e+00
1.500000e+01 5.250000e+00 0.000000e+00
1.525000e+01 5.000000e+00 0.000000e+00
2.950000e+01 4.750000e+00 0.000000e+00
2.975000e+01 4.500000e+00 0.000000e+00
3.000000e+01 4.750000e+00 0.000000e+00
2.900000e+01 4.750000e+00 0.000000e+00
2.925000e+01 4.500000e+00 0.000000e+00
2.850000e+01 4.750000e+00 0.000000e+00
2.875000e+01 4.500000e+00 0.000000e+00
2.800000e+01 4.750000e+00 0.000000e+00
2.825000e+01 4.500000e+00 0.000000e+00
2.750000e+01 4.750000e+00 0.000000e+00
2.775000e+01 4.500000e+00 0.000000e+00
2.700000e+01 4.750000e+00 0.000000e+00
2.725000e+01 4.500000e+00 0.000000e+00
2.650000e+01 4.750000e+00 0.000000e+00
2.675000e+01 4.500000e+00 0.000000e+00
2.600000e+01 4.750000e+00 0.000000e+00
2.625000e+01 4.500000e+00 0.000000e+00
2.550000e+01 4.750000e+00 0.000000e+00
2.575000e+01 4.500000e+00 0.000000e+00
2.500000e+01 4.750000e+00 0.000000e+00
2.525000e+01 4.500000e+00 0.000000e+00
2.450000e+01 4.750000e+00 0.000000e+00
2.475000e+01 4.500000e+00 0.000000e+00
2.400000e+01 4.750000e+00 0.000000e+00
2.425000e+01 4.500000e+00 0.000000e+00
2.350000e+01 4.750000e+00 0.000000e+00
2.375000e+01 4.500000e+00 0.000000e+00
2.300000e+01 4.750000e+00 0.000000e+00
2.325000e+01 4.500000e+00 0.000000e+00
2.250000e+01 4.750000e+00 0.000000e+00
2.275000e+01 4.500000e+00 0.000000e+00
2.200000e+01 4.750000e+00 0.000000e+00
2.225000e+01 4.500000e+00 0.000000e+00
2.150000e+01 4.750000e+00 0.000000e+00
2.175000e+01 4.500000e+00 0.000000e+00
2.100000e+01 4.750000e+00 0.000000e+00
2.125000e+01 4.500000e+00 0.000000e+00
2.050000e+01 4.750000e+00 0.000000e+00
2.075000e+01 4.500000e+00 0.000000e+00
2.000000e+01 4.750000e+00 0.000000e+00
2.025000e+01 4.500000e+00 0.000000e+00
1.950000e+01 4.750000e+00 0.000000e+00
1.975000e+01 4.500000e+00 0.000000e+00
1.900000e+01 4.750000e+00 0.000000e+00
1.925000e+01 4.500000e+00 0.000000e+00
1.850000e+01 4.750000e+00 0.000000e+00
1.875000e+01 4.500000e+00 0.000000e+00
1.800000e+01 4.750000e+00 0.000000e+00
1.825000e+01 4.500000e+00 0.000000e+00
1.750000e+01 4.750000e+00 0.000000e+00
1.775000e+01 4.500000e+00 0.000000e+00
1.700000e+01 4.750000e+00 0.000000e+00
1.725000e+01 4.500000e+00 0.000000e+00
1.650000e+01 4.750000e+00 0.000000e+00
1.675000e+01 4.500000e+00 0.000000e+00
1.600000e+01 4.750000e+00 0.000000e+00
1.625000e+01 4.500000e+00 0.000000e+00
1.550000e+01 4.750000e+00 0.000000e+00
1.575000e+01 4.500000e+00 0.000000e+00
1.500000e+01 4.750000e+00 0.000000e+00
1.525000e+01 4.500000e+00 0.000000e+00
2.950000e+01 4.250000e+00 0.000000e+00
2.975000e+01 4.000000e+00 0.000000e+00
3.000000e+01 4.250000e+00 0.000000e+00
2.900000e+01 4.250000e+00 0.000000e+00
2.925000e+01 4.000000e+00 0.000000e+00
2.850000e+01 4.250000e+00 0.000000e+00
2.875000e+01 4.000000e+00 0.000000e+00
2.800000e+01 4.250000e+00 0.000000e+00
2.825000e+01 4.000000e+00 0.000000e+00
2.750000e+01 4.250000e+00 0.000000e+00
2.775000e+01 4.000000e+00 0.000000e+00
2.700000e+01 4.250000e+00 0.000000e+00
2.725000e+01 4.000000e+00 0.000000e+00
2.650000e+01 4.250000e+00 0.000000e+00
2.675000e+01 4.000000e+00 0.000000e+00
2.600000e+01 4.250000e+00 0.000000e+00
2.625000e+01 4.000000e+00 0.000000e+00
2.550000e+01 4.250000e+00 0.000000e+00
2.575000e+01 4.000000e+00 0.000000e+00
2.500000e+01 4.250000e+00 0.000000e+00
2.525000e+01 4.000000e+00 0.000000e+00
2.450000e+01 4.250000e+00 0.000000e+00
2.475000e+01 4.000000e+00 0.000000e+00
2.400000e+01 4.250000e+00 0.000000e+00
2.425000e+01 4.000000e+00 0.000000e+00
2.350000e+01 4.250000e+00 0.000000e+00
2.375000e+01 4.000000e+00 0.000000e+00
2.300000e+01 4.250000e+00 0.000000e+00
2.325000e+01 4.000000e+00 0.000000e+00
2.250000e+01 4.250000e+00 0.000000e+00
2.275000e+01 4.000000e+00 0.000000e+00
2.200000e+01 4.250000e+00 0.000000e+00
2.225000e+01 4.000000e+00 0.000000e+00
2.150000e+01 4.250000e+00 0.000000e+00
2.175000e+01 4.000000e+00 0.000000e+00
2.100000e+01 4.250000e+00 0.000000e+00
2.125000e+01 4.000000e+00 0.000000e+00
2.050000e+01 4.250000e+00 0.000000e+00
2.075000e+01 4.000000e+00 0.000000e+00
2.000000e+01 4.250000e+00 0.000000e+00
2.025000e+01 4.000000e+00 0.000000e+00
1.950000e+01 4.250000e+00 0.000000e+00
1.975000e+01 4.000000e+00 0.000000e+00
1.900000e+01 4.250000e+00 0.000000e+00
1.925000e+01 4.000000e+00 0.000000e+00
1.850000e+01 4.250000e+00 0.000000e+00
1.875000e+01 4.000000e+00 0.000000e+00
1.800000e+01 4.250000e+00 0.000000e+00
1.825000e+01 4.000000e+00 0.000000e+00
1.750000e+01 4.250000e+00 0.000000e+00
1.775000e+01 4.000000e+00 0.000000e+00
1.700000e+01 4.250000e+00 0.000000e+00
1.725000e+01 4.000000e+00 0.000000e+00
1.650000e+01 4.250000e+00 0.000000e+00
1.675000e+01 4.000000e+00 0.000000e+00
1.600000e+01 4.250000e+00 0.000000e+00
1.625000e+01 4.000000e+00 0.000000e+00
1.550000e+01 4.250000e+00 0.000000e+00
1.575000e+01 4.000000e+00 0.000000e+00
1.500000e+01 4.250000e+00 0.000000e+00
1.525000e+01 4.000000e+00 0.000000e+00
2.950000e+01 3.750000e+00 0.000000e+00
2.975000e+01 3.500000e+00 0.000000e+00
3.000000e+01 3.750000e+00 0.000000e+00
2.900000e+01 3.750000e+00 0.000000e+00
2.925000e+01 3.500000e+00 0.000000e+00
2.850000e+01 3.750000e+00 0.000000e+00
2.875000e+01 3.500000e+00 0.000000e+00
2.800000e+01 3.750000e+00 0.000000e+00
2.825000e+01 3.500000e+00 0.000000e+00
2.750000e+01 3.750000e+00 0.000000e+00
2.775000e+01 3.500000e+00 0.000000e+00
2.700000e+01 3.750000e+00 0.000000e+00
2.725000e+01 3.500000e+00 0.000000e+00
2.650000e+01 3.750000e+00 0.000000e+00
2.675000e+01 3.500000e+00 0.000000e+00
2.600000e+01 3.750000e+00 0.000000e+00
2.625000e+01 3.500000e+00 0.000000e+00
2.550000e+01 3.750000e+00 0.000000e+00
2.575000e+01 3.500000e+00 0.000000e+00
2.500000e+01 3.750000e+00 0.000000e+00
2.525000e+01 3.500000e+00 0.000000e+00
2.450000e+01 3.750000e+00 0.000000e+00
2.475000e+01 3.500000e+00 0.000000e+00
2.400000e+01 3.750000e+00 0.000000e+00
2.425000e+01 3.500000e+00 0.000000e+00
2.350000e+01 3.750000e+00 0.000000e+00
2.375000e+01 3.500000e+00 0.000000e+00
2.300000e+01 3.750000e+00 0.000000e+00
2.325000e+01 3.500000e+00 0.000000e+00
2.250000e+01 3.750000e+00 0.000000e+00
2.275000e+01 3.500000e+00 0.000000e+00
2.200000e+01 3.750000e+00 0.000000e+00
2.225000e+01 3.500000e+00 0.000000e+00
2.150000e+01 3.750000e+00 0.000000e+00
2.175000e+01 3.500000e+00 0.000000e+00
2.100000e+01 3.750000e+00 0.000000e+00
2.125000e+01 3.500000e+00 0.000000e+00
2.050000e+01 3.750000e+00 0.000000e+00
2.075000e+01 3.500000e+00 0.000000e+00
2.000000e+01 3.750000e+00 0.000000e+00
2.025000e+01 3.500000e+00 0.000000e+00
1.950000e+01 3.750000e+00 0.000000e+00
1.975000e+01 3.500000e+00 0.000000e+00
1.900000e+01 3.750000e+00 0.000000e+00
1.925000e+01 3.500000e+00 0.000000e+00
1.850000e+01 3.750000e+00 0.000000e+00
1.875000e+01 3.500000e+00 0.000000e+00
1.800000e+01 3.750000e+00 0.000000e+00
1.825000e+01 3.500000e+00 0.000000e+00
1.750000e+01 3.750000e+00 0.000000e+00
1.775000e+01 3.500000e+00 0.000000e+00
1.700000e+01 3.750000e+00 0.000000e+00
1.725000e+01 3.500000e+00 0.000000e+00
1.650000e+01 3.750000e+00 0.000000e+00
1.675000e+01 3.500000e+00 0.000000e+00
1.600000e+01 3.750000e+00 0.000000e+00
1.625000e+01 3.500000e+00 0.000000e+00
1.550000e+01 3.750000e+00 0.000000e+00
1.575000e+01 3.500000e+00 0.000000e+00
1.500000e+01 3.750000e+00 0.000000e+00
1.525000e+01 3.500000e+00 0.000000e+00
2.950000e+01 3.250000e+00 0.000000e+00
2.975000e+01 3.000000e+00 0.000000e+00
3.000000e+01 3.250000e+00 0.000000e+00
2.900000e+01 3.250000e+00 0.000000e+00
2.925000e+01 3.000000e+00 0.000000e+00
2.850000e+01 3.250000e+00 0.000000e+00
2.875000e+01 3.000000e+00 0.000000e+00
2.800000e+01 3.250000e+00 0.000000e+00
2.825000e+01 3.000000e+00 0.000000e+00
2.750000e+01 3.250000e+00 0.000000e+00
2.775000e+01 3.000000e+00 0.000000e+00
2.700000e+01 3.250000e+00 0.000000e+00
2.725000e+01 3.000000e+00 0.000000e+00
2.650000e+01 3.250000e+00 0.000000e+00
2.675000e+01 3.000000e+00 0.000000e+00
2.600000e+01 3.250000e+00 0.000000e+00
2.625000e+01 3.000000e+00 0.000000e+00
2.550000e+01 3.250000e+00 0.000000e+00
2.575000e+01 3.000000e+00 0.000000e+00
2.500000e+01 3.250000e+00 0.000000e+00
2.525000e+01 3.000000e+00 0.000000e+00
2.450000e+01 3.250000e+00 0.000000e+00
2.475000e+01 3.000000e+00 0.000000e+00
2.400000e+01 3.250000e+00 0.000000e+00
2.425000e+01 3.000000e+00 0.000000e+00
2.350000e+01 3.250000e+00 0.000000e+00
2.375000e+01 3.000000e+00 0.000000e+00
2.300000e+01 3.250000e+00 0.000000e+00
2.325000e+01 3.000000e+00 0.000000e+00
2.250000e+01 3.250000e+00 0.000000e+00
2.275000e+01 3.000000e+00 0.000000e+00
2.200000e+01 3.250000e+00 0.000000e+00
2.225000e+01 3.000000e+00 0.000000e+00
2.150000e+01 3.250000e+00 0.000000e+00
2.175000e+01 3.000000e+00 0.000000e+00
2.100000e+01 3.250000e+00 0.000000e+00
2.125000e+01 3.000000e+00 0.000000e+00
2.050000e+01 3.250000e+00 0.000000e+00
2.075000e+01 3.000000e+00 0.000000e+00
2.000000e+01 3.250000e+00 0.000000e+00
2.025000e+01 3.000000e+00 0.000000e+00
1.950000e+01 3.250000e+00 0.000000e+00
1.975000e+01 3.000000e+00 0.000000e+00
1.900000e+01 3.250000e+00 0.000000e+00
1.925000e+01 3.000000e+00 0.000000e+00
1.850000e+01 3.250000e+00 0.000000e+00
1.875000e+01 3.000000e+00 0.000000e+00
1.800000e+01 3.250000e+00 0.000000e+00
1.825000e+01 3.000000e+00 0.000000e+00
1.750000e+01 3.250000e+00 0.000000e+00
1.775000e+01 3.000000e+00 0.000000e+00
1.700000e+01 3.250000e+00 0.000000e+00
1.725000e+01 3.000000e+00 0.000000e+00
1.650000e+01 3.250000e+00 0.000000e+00
1.675000e+01 3.000000e+00 0.000000e+00
1.600000e+01 3.250000e+00 0.000000e+00
1.625000e+01 3.000000e+00 0.000000e+00
1.550000e+01 3.250000e+00 0.000000e+00
1.575000e+01 3.000000e+00 0.000000e+00
1.500000e+01 3.250000e+00 0.000000e+00
1.525000e+01 3.000000e+00 0.000000e+00
2.950000e+01 2.750000e+00 0.000000e+00
2.975000e+01 2.500000e+00 0.000000e+00
3.000000e+01 2.750000e+00 0.000000e+00
2.900000e+01 2.750000e+00 0.000000e+00
2.925000e+01 2.500000e+00 0.000000e+00
2.850000e+01 2.750000e+00 0.000000e+00
2.875000e+01 2.500000e+00 0.000000e+00
2.800000e+01 2.750000e+00 0.000000e+00
2.825000e+01 2.500000e+00 0.000000e+00
2.750000e+01 2.750000e+00 0.000000e+00
2.775000e+01 2.500000e+00 0.000000e+00
2.700000e+01 2.750000e+00 0.000000e+00
2.725000e+01 2.500000e+00 0.000000e+00
2.650000e+01 2.750000e+00 0.000000e+00
2.675000e+01 2.500000e+00 0.000000e+00
2.600000e+01 2.750000e+00 0.000000e+00
2.625000e+01 2.500000e+00 0.000000e+00
2.550000e+01 2.750000e+00 0.000000e+00
2.575000e+01 2.500000e+00 0.000000e+00
2.500000e+01 2.750000e+00 0.000000e+00
2.525000e+01 2.500000e+00 0.000000e+00
2.450000e+01 2.750000e+00 0.000000e+00
2.475000e+01 2.500000e+00 0.000000e+00
2.400000e+01 2.750000e+00 0.000000e+00
2.425000e+01 2.500000e+00 0.000000e+00
2.350000e+01 2.750000e+00 0.000000e+00
2.375000e+01 2.500000e+00 0.000000e+00
2.300000e+01 2.750000e+00 0.000000e+00
2.325000e+01 2.500000e+00 0.000000e+00
2.250000e+01 2.750000e+00 0.000000e+00
2.275000e+01 2.500000e+00 0.000000e+00
2.200000e+01 2.750000e+00 0.000000e+00
2.225000e+01 2.500000e+00 0.000000e+00
2.150000e+01 2.750000e+00 0.000000e+00
2.175000e+01 2.500000e+00 0.000000e+00
2.100000e+01 2.750000e+00 0.000000e+00
2.125000e+01 2.500000e+00 0.000000e+00
2.050000e+01 2.750000e+00 0.000000e+00
2.075000e+01 2.500000e+00 0.000000e+00
2.000000e+01 2.750000e+00 0.000000e+00
2.025000e+01 2.500000e+00 0.000000e+00
1.950000e+01 2.750000e+00 0.000000e+00
1.975000e+01 2.500000e+00 0.000000e+00
1.900000e+01 2.750000e+00 0.000000e+00
1.925000e+01 2.500000e+00 0.000000e+00
1.850000e+01 2.750000e+00 0.000000e+00
1.875000e+01 2.500000e+00 0.000000e+00
1.800000e+01 2.750000e+00 0.000000e+00
1.825000e+01 2.500000e+00 0.000000e+00
1.750000e+01 2.750000e+00 0.000000e+00
1.775000e+01 2.500000e+00 0.000000e+00
1.700000e+01 2.750000e+00 0.000000e+00
1.725000e+01 2.500000e+00 0.000000e+00
1.650000e+01 2.750000e+00 0.000000e+00
1.675000e+01 2.500000e+00 0.000000e+00
1.600000e+01 2.750000e+00 0.000000e+00
1.625000e+01 2.500000e+00 0.000000e+00
1.550000e+01 2.750000e+00 0.000000e+00
1.575000e+01 2.500000e+00 0.000000e+00
1.500000e+01 2.750000e+00 0.000000e+00
1.525000e+01 2.500000e+00 0.000000e+00
2.950000e+01 2.250000e+00 0.000000e+00
2.975000e+01 2.000000e+00 0.000000e+00
3.000000e+01 2.250000e+00 0.000000e+00
2.900000e+01 2.250000e+00 0.000000e+00
2.925000e+01 2.000000e+00 0.000000e+00
2.850000e+01 2.250000e+00 0.000000e+00
2.875000e+01 2.000000e+00 0.000000e+00
2.800000e+01 2.250000e+00 0.000000e+00
2.825000e+01 2.000000e+00 0.000000e+00
2.750000e+01 2.250000e+00 0.000000e+00
2.775000e+01 2.000000e+00 0.000000e+00
2.700000e+01 2.250000e+00 0.000000e+00
2.725000e+01 2.000000e+00 0.000000e+00
2.650000e+01 2.250000e+00 0.000000e+00
2.675000e+01 2.000000e+00 0.000000e+00
2.600000e+01 2.250000e+00 0.000000e+00
2.625000e+01 2.000000e+00 0.000000e+00
2.550000e+01 2.250000e+00 0.000000e+00
2.575000e+01 2.000000e+00 0.000000e+00
2.500000e+01 2.250000e+00 0.000000e+00
2.525000e+01 2.000000e+00 0.000000e+00
2.450000e+01 2.250000e+00 0.000000e+00
2.475000e+01 2.000000e+00 0.000000e+00
2.400000e+01 2.250000e+00 0.000000e+00
2.425000e+01 2.000000e+00 0.000000e+00
2.350000e+01 2.250000e+00 0.000000e+00
2.375000e+01 2.000000e+00 0.000000e+00
2.300000e+01 2.250000e+00 0.000000e+00
2.325000e+01 2.000000e+00 0.000000e+00
2.250000e+01 2.250000e+00 0.000000e+00
2.275000e+01 2.000000e+00 0.000000e+00
2.200000e+01 2.250000e+00 0.000000e+00
2.225000e+01 2.000000e+00 0.000000e+00
2.150000e+01 2.250000e+00 0.000000e+00
2.175000e+01 2.000000e+00 0.000000e+00
2.100000e+01 2.250000e+00 0.000000e+00
2.125000e+01 2.000000e+00 0.000000e+00
2.050000e+01 2.250000e+00 0.000000e+00
2.075000e+01 2.000000e+00 0.000000e+00
2.000000e+01 2.250000e+00 0.000000e+00
2.025000e+01 2.000000e+00 0.000000e+00
1.950000e+01 2.250000e+00 0.000000e+00
1.975000e+01 2.000000e+00 0.000000e+00
1.900000e+01 2.250000e+00 0.000000e+00
1.925000e+01 2.000000e+00 0.000000e+00
1.850000e+01 2.250000e+00 0.000000e+00
1.875000e+01 2.000000e+00 0.000000e+00
1.800000e+01 2.250000e+00 0.000000e+00
1.825000e+01 2.000000e+00 0.000000e+00
1.750000e+01 2.250000e+00 0.000000e+00
1.775000e+01 2.000000e+00 0.000000e+00
1.700000e+01 2.250000e+00 0.000000e+00
1.725000e+01 2.000000e+00 0.000000e+00
1.650000e+01 2.250000e+00 0.000000e+00
1.675000e+01 2.000000e+00 0.000000e+00
1.600000e+01 2.250000e+00 0.000000e+00
1.625000e+01 2.000000e+00 0.000000e+00
1.550000e+01 2.250000e+00 0.000000e+00
1.575000e+01 2.000000e+00 0.000000e+00
1.500000e+01 2.250000e+00 0.000000e+00
1.525000e+01 2.000000e+00 0.000000e+00
2.950000e+01 1.750000e+00 0.000000e+00
2.975000e+01 1.500000e+00 0.000000e+00
3.000000e+01 1.750000e+00 0.000000e+00
2.900000e+01 1.750000e+00 0.000000e+00
2.925000e+01 1.500000e+00 0.000000e+00
2.850000e+01 1.750000e+00 0.000000e+00
2.875000e+01 1.500000e+00 0.000000e+00
2.800000e+01 1.750000e+00 0.000000e+00
2.825000e+01 1.500000e+00 0.000000e+00
2.750000e+01 1.750000e+00 0.000000e+00
2.775000e+01 1.500000e+00 0.000000e+00
2.700000e+01 1.750000e+00 0.000000e+00
2.725000e+01 1.500000e+00 0.000000e+00
2.650000e+01 1.750000e+00 0.000000e+00
2.675000e+01 1.500000e+00 0.000000e+00
2.600000e+01 1.750000e+00 0.000000e+00
2.625000e+01 1.500000e+00 0.000000e+00
2.550000e+01 1.750000e+00 0.000000e+00
2.575000e+01 1.500000e+00 0.000000e+00
2.500000e+01 1.750000e+00 0.000000e+00
2.525000e+01 1.500000e+00 0.000000e+00
2.450000e+01 1.750000e+00 0.000000e+00
2.475000e+01 1.500000e+00 0.000000e+00
2.400000e+01 1.750000e+00 0.000000e+00
2.425000e+01 1.500000e+00 0.000000e+00
2.350000e+01 1.750000e+00 0.000000e+00
2.375000e+01 1.500000e+00 0.000000e+00
2.300000e+01 1.750000e+00 0.000000e+00
2.325000e+01 1.500000e+00 0.000000e+00
2.250000e+01 1.750000e+00 0.000000e+00
2.275000e+01 1.500000e+00 0.000000e+00
2.200000e+01 1.750000e+00 0.000000e+00
2.225000e+01 1.500000e+00 0.000000e+00
2.150000e+01 1.750000e+00 0.000000e+00
2.175000e+01 1.500000e+00 0.000000e+00
2.100000e+01 1.750000e+00 0.000000e+00
2.125000e+01 1.500000e+00 0.000000e+00
2.050000e+01 1.750000e+00 0.000000e+00
2.075000e+01 1.500000e+00 0.000000e+00
2.000000e+01 1.750000e+00 0.000000e+00
2.025000e+01 1.500000e+00 0.000000e+00
1.950000e+01 1.750000e+00 0.000000e+00
1.975000e+01 1.500000e+00 0.000000e+00
1.900000e+01 1.750000e+00 0.000000e+00
1.925000e+01 1.500000e+00 0.000000e+00
1.850000e+01 1.750000e+00 0.000000e+00
1.875000e+01 1.500000e+00 0.000000e+00
1.800000e+01 1.750000e+00 0.000000e+00
1.825000e+01 1.500000e+00 0.000000e+00
1.750000e+01 1.750000e+00 0.000000e+00
1.775000e+01 1.500000e+00 0.000000e+00
1.700000e+01 1.750000e+00 0.000000e+00
1.725000e+01 1.500000e+00 0.000000e+00
1.650000e+01 1.750000e+00 0.000000e+00
1.675000e+01 1.500000e+00 0.000000e+00
1.600000e+01 1.750000e+00 0.000000e+00
1.625000e+01 1.500000e+00 0.000000e+00
1.550000e+01 1.750000e+00 0.000000e+00
1.575000e+01 1.500000e+00 0.000000e+00
1.500000e+01 1.750000e+00 0.000000e+00
1.525000e+01 1.500000e+00 0.000000e+00
2.950000e+01 1.250000e+00 0.000000e+00
2.975000e+01 1.000000e+00 0.000000e+00
3.000000e+01 1.250000e+00 0.000000e+00
2.900000e+01 1.250000e+00 0.000000e+00
2.925000e+01 1.000000e+00 0.000000e+00
2.850000e+01 1.250000e+00 0.000000e+00
2.875000e+01 1.000000e+00 0.000000e+00
2.800000e+01 1.250000e+00 0.000000e+00
2.825000e+01 1.000000e+00 0.000000e+00
2.750000e+01 1.250000e+00 0.000000e+00
2.775000e+01 1.000000e+00 0.000000e+00
2.700000e+01 1.250000e+00 0.000000e+00
2.725000e+01 1.000000e+00 0.000000e+00
2.650000e+01 1.250000e+00 0.000000e+00
2.675000e+01 1.000000e+00 0.000000e+00
2.600000e+01 1.250000e+00 0.000000e+00
2.625000e+01 1.000000e+00 0.000000e+00
2.550000e+01 1.250000e+00 0.000000e+00
2.575000e+01 1.000000e+00 0.000000e+00
2.500000e+01 1.250000e+00 0.000000e+00
2.525000e+01 1.000000e+00 0.000000e+00
2.450000e+01 1.250000e+00 0.000000e+00
2.475000e+01 1.000000e+00 0.000000e+00
2.400000e+01 1.250000e+00 0.000000e+00
2.425000e+01 1.000000e+00 0.000000e+00
2.350000e+01 1.250000e+00 0.000000e+00
2.375000e+01 1.000000e+00 0.000000e+00
2.300000e+01 1.250000e+00 0.000000e+00
2.325000e+01 1.000000e+00 0.000000e+00
2.250000e+01 1.250000e+00 0.000000e+00
2.275000e+01 1.000000e+00 0.000000e+00
2.200000e+01 1.250000e+00 0.000000e+00
2.225000e+01 1.000000e+00 0.000000e+00
2.150000e+01 1.250000e+00 0.000000e+00
2.175000e+01 1.000000e+00 0.000000e+00
2.100000e+01 1.250000e+00 0.000000e+00
2.125000e+01 1.000000e+00 0.000000e+00
2.050000e+01 1.250000e+00 0.000000e+00
2.075000e+01 1.000000e+00 0.000000e+00
2.000000e+01 1.250000e+00 0.000000e+00
2.025000e+01 1.000000e+00 0.000000e+00
1.950000e+01 1.250000e+00 0.000000e+00
1.975000e+01 1.000000e+00 0.000000e+00
1.900000e+01 1.250000e+00 0.000000e+00
1.925000e+01 1.000000e+00 0.000000e+00
1.850000e+01 1.250000e+00 0.000000e+00
1.875000e+01 1.000000e+00 0.000000e+00
1.800000e+01 1.250000e+00 0.000000e+00
1.825000e+01 1.000000e+00 0.000000e+00
1.750000e+01 1.250000e+00 0.000000e+00
1.775000e+01 1.000000e+00 0.000000e+00
1.700000e+01 1.250000e+00 0.000000e+00
1.725000e+01 1.000000e+00 0.000000e+00
1.650000e+01 1.250000e+00 0.000000e+00
1.675000e+01 1.000000e+00 0.000000e+00
1.600000e+01 1.250000e+00 0.000000e+00
1.625000e+01 1.000000e+00 0.000000e+00
1.550000e+01 1.250000e+00 0.000000e+00
1.575000e+01 1.000000e+00 0.000000e+00
1.500000e+01 1.250000e+00 0.000000e+00
1.525000e+01 1.000000e+00 0.000000e+00
2.950000e+01 7.500000e-01 0.000000e+00
2.975000e+01 5.000000e-01 0.000000e+00
3.000000e+01 7.500000e-01 0.000000e+00
2.900000e+01 7.500000e-01 0.000000e+00
2.925000e+01 5.000000e-01 0.000000e+00
2.850000e+01 7.500000e-01 0.000000e+00
2.875000e+01 5.000000e-01 0.000000e+00
2.800000e+01 7.500000e-01 0.000000e+00
2.825000e+01 5.000000e-01 0.000000e+00
2.750000e+01 7.500000e-01 0.000000e+00
2.775000e+01 5.000000e-01 0.000000e+00
2.700000e+01 7.500000e-01 0.000000e+00
2.725000e+01 5.000000e-01 0.000000e+00
2.650000e+01 7.500000e-01 0.000000e+00
2.675000e+01 5.000000e-01 0.000000e+00
2.600000e+01 7.500000e-01 0.000000e+00
2.625000e+01 5.000000e-01 0.000000e+00
2.550000e+01 7.500000e-01 0.000000e+00
2.575000e+01 5.000000e-01 0.000000e+00
2.500000e+01 7.500000e-01 0.000000e+00
2.525000e+01 5.000000e-01 0.000000e+00
2.450000e+01 7.500000e-01 0.000000e+00
2.475000e+01 5.000000e-01 0.000000e+00
2.400000e+01 7.500000e-01 0.000000e+00
2.425000e+01 5.000000e-01 0.000000e+00
2.350000e+01 7.500000e-01 0.000000e+00
2.375000e+01 5.000000e-01 0.000000e+00
2.300000e+01 7.500000e-01 0.000000e+00
2.325000e+01 5.000000e-01 0.000000e+00
2.250000e+01 7.500000e-01 0.000000e+00
2.275000e+01 5.000000e-01 0.000000e+00
2.200000e+01 7.500000e-01 0.000000e+00
2.225000e+01 5.000000e-01 0.000000e+00
2.150000e+01 7.500000e-01 0.000000e+00
2.175000e+01 5.000000e-01 0.000000e+00
2.100000e+01 7.500000e-01 0.000000e+00
2.125000e+01 5.000000e-01 0.000000e+00
2.050000e+01 7.500000e-01 0.000000e+00
2.075000e+01 5.000000e-01 0.000000e+00
2.000000e+01 7.500000e-01 0.000000e+00
2.025000e+01 5.000000e-01 0.000000e+00
1.950000e+01 7.500000e-01 0.000000e+00
1.975000e+01 5.000000e-01 0.000000e+00
1.900000e+01 7.500000e-01 0.000000e+00
1.925000e+01 5.000000e-01 0.000000e+00
1.850000e+01 7.500000e-01 0.000000e+00
1.875000e+01 5.000000e-01 0.000000e+00
1.800000e+01 7.500000e-01 0.000000e+00
1.825000e+01 5.000000e-01 0.000000e+00
1.750000e+01 7.500000e-01 0.000000e+00
1.775000e+01 5.000000e-01 0.000000e+00
1.700000e+01 7.500000e-01 0.000000e+00
1.725000e+01 5.000000e-01 0.000000e+00
1.650000e+01 7.500000e-01 0.000000e+00
1.675000e+01 5.000000e-01 0.000000e+00
1.600000e+01 7.500000e-01 0.000000e+00
1.625000e+01 5.000000e-01 0.000000e+00
1.550000e+01 7.500000e-01 0.000000e+00
1.575000e+01 5.000000e-01 0.000000e+00
1.500000e+01 7.500000e-01 0.000000e+00
1.525000e+01 5.000000e-01 0.000000e+00
2.950000e+01 2.500000e-01 0.000000e+00
2.975000e+01 0.000000e+00 0.000000e+00
3.000000e+01 2.500000e-01 0.000000e+00
2.900000e+01 2.500000e-01 0.000000e+00
2.925000e+01 0.000000e+00 0.000000e+00
2.850000e+01 2.500000e-01 0.000000e+00
2.875000e+01 0.000000e+00 0.000000e+00
2.800000e+01 2.500000e-01 0.000000e+00
2.825000e+01 0.000000e+00 0.000000e+00
2.750000e+01 2.500000e-01 0.000000e+00
2.775000e+01 0.000000e+00 0.000000e+00
2.700000e+01 2.500000e-01 0.000000e+00
2.725000e+01 0.000000e+00 0.000000e+00
2.650000e+01 2.500000e-01 0.000000e+00
2.675000e+01 0.000000e+00 0.000000e+00
2.600000e+01 2.500000e-01 0.000000e+00
2.625000e+01 0.000000e+00 0.000000e+00
2.550000e+01 2.500000e-01 0.000000e+00
2.575000e+01 0.000000e+00 0.000000e+00
2.500000e+01 2.500000e-01 0.000000e+00
2.525000e+01 0.000000e+00 0.000000e+00
2.450000e+01 2.500000e-01 0.000000e+00
2.475000e+01 0.000000e+00 0.000000e+00
2.400000e+01 2.500000e-01 0.000000e+00
2.425000e+01 0.000000e+00 0.000000e+00
2.350000e+01 2.500000e-01 0.000000e+00
2.375000e+01 0.000000e+00 0.000000e+00
2.300000e+01 2.500000e-01 0.000000e+00
2.325000e+01 0.000000e+00 0.000000e+00
2.250000e+01 2.500000e-01 0.000000e+00
2.275000e+01 0.000000e+00 0.000000e+00
2.200000e+01 2.500000e-01 0.000000e+00
2.225000e+01 0.000000e+00 0.000000e+00
2.150000e+01 2.500000e-01 0.000000e+00
2.175000e+01 0.000000e+00 0.000000e+00
2.100000e+01 2.500000e-01 0.000000e+00
2.125000e+01 0.000000e+00 0.000000e+00
2.050000e+01 2.500000e-01 0.000000e+00
2.075000e+01 0.000000e+00 0.000000e+00
2.000000e+01 2.500000e-01 0.000000e+00
2.025000e+01 0.000000e+00 0.000000e+00
1.950000e+01 2.500000e-01 0.000000e+00
1.975000e+01 0.000000e+00 0.000000e+00
1.900000e+01 2.500000e-01 0.000000e+00
1.925000e+01 0.000000e+00 0.000000e+00
1.850000e+01 2.500000e-01 0.000000e+00
1.875000e+01 0.000000e+00 0.000000e+00
1.800000e+01 2.500000e-01 0.000000e+00
1.825000e+01 0.000000e+00 0.000000e+00
1.750000e+01 2.500000e-01 0.000000e+00
1.775000e+01 0.000000e+00 0.000000e+00
1.700000e+01 2.500000e-01 0.000000e+00
1.725000e+01 0.000000e+00 0.000000e+00
1.650000e+01 2.500000e-01 0.000000e+00
1.675000e+01 0.000000e+00 0.000000e+00
1.600000e+01 2.500000e-01 0.000000e+00
1.625000e+01 0.000000e+00 0.000000e+00
1.550000e+01 2.500000e-01 0.000000e+00
1.575000e+01 0.000000e+00 0.000000e+00
1.500000e+01 2.500000e-01 0.000000e+00
1.525000e+01 0.000000e+00 0.000000e+00
2.950000e+01 -2.500000e-01 0.000000e+00
2.975000e+01 -5.000000e-01 0.000000e+00
3.000000e+01 -2.500000e-01 0.000000e+00
2.900000e+01 -2.500000e-01 0.000000e+00
2.925000e+01 -5.000000e-01 0.000000e+00
2.850000e+01 -2.500000e-01 0.000000e+00
2.875000e+01 -5.000000e-01 0.000000e+00
2.800000e+01 -2.500000e-01 0.000000e+00
2.825000e+01 -5.000000e-01 0.000000e+00
2.750000e+01 -2.500000e-01 0.000000e+00
2.775000e+01 -5.000000e-01 0.000000e+00
2.700000e+01 -2.500000e-01 0.000000e+00
2.725000e+01 -5.000000e-01 0.000000e+00
2.650000e+01 -2.500000e-01 0.000000e+00
2.675000e+01 -5.000000e-01 0.000000e+00
2.600000e+01 -2.500000e-01 0.000000e+00
2.625000e+01 -5.000000e-01 0.000000e+00
2.550000e+01 -2.500000e-01 0.000000e+00
2.575000e+01 -5.000000e-01 0.000000e+00
2.500000e+01 -2.500000e-01 0.000000e+00
2.525000e+01 -5.000000e-01 0.000000e+00
2.450000e+01 -2.500000e-01 0.000000e+00
2.475000e+01 -5.000000e-01 0.000000e+00
2.400000e+01 -2.500000e-01 0.000000e+00
2.425000e+01 -5.000000e-01 0.000000e+00
2.350000e+01 -2.500000e-01 0.000000e+00
2.375000e+01 -5.000000e-01 0.000000e+00
2.300000e+01 -2.500000e-01 0.000000e+00
2.325000e+01 -5.000000e-01 0.000000e+00
2.250000e+01 -2.500000e-01 0.000000e+00
2.275000e+01 -5.000000e-01 0.000000e+00
2.200000e+01 -2.500000e-01 0.000000e+00
2.225000e+01 -5.000000e-01 0.000000e+00
2.150000e+01 -2.500000e-01 0.000000e+00
2.175000e+01 -5.000000e-01 0.000000e+00
2.100000e+01 -2.500000e-01 0.000000e+00
2.125000e+01 -5.000000e-01 0.000000e+00
2.050000e+01 -2.500000e-01 0.000000e+00
2.075000e+01 -5.000000e-01 0.000000e+00
2.000000e+01 -2.500000e-01 0.000000e+00
2.025000e+01 -5.000000e-01 0.000000e+00
1.950000e+01 -2.500000e-01 0.000000e+00
1.975000e+01 -5.000000e-01 0.000000e+00
1.900000e+01 -2.500000e-01 0.000000e+00
1.925000e+01 -5.000000e-01 0.000000e+00
1.850000e+01 -2.500000e-01 0.000000e+00
1.875000e+01 -5.000000e-01 0.000000e+00
1.800000e+01 -2.500000e-01 0.000000e+00
1.825000e+01 -5.000000e-01 0.000000e+00
1.750000e+01 -2.500000e-01 0.000000e+00
1.775000e+01 -5.000000e-01 0.000000e+00
1.700000e+01 -2.500000e-01 0.000000e+00
1.725000e+01 -5.000000e-01 0.000000e+00
1.650000e+01 -2.500000e-01 0.000000e+00
1.675000e+01 -5.000000e-01 0.000000e+00
1.600000e+01 -2.500000e-01 0.000000e+00
1.625000e+01 -5.000000e-01 0.000000e+00
1.550000e+01 -2.500000e-01 0.000000e+00
1.575000e+01 -5.000000e-01 0.000000e+00
1.500000e+01 -2.500000e-01 0.000000e+00
1.525000e+01 -5.000000e-01 0.000000e+00
2.950000e+01 -7.500000e-01 0.000000e+00
2.975000e+01 -1.000000e+00 0.000000e+00
3.000000e+01 -7.500000e-01 0.000000e+00
2.900000e+01 -7.500000e-01 0.000000e+00
2.925000e+01 -1.000000e+00 0.000000e+00
2.850000e+01 -7.500000e-01 0.000000e+00
2.875000e+01 -1.000000e+00 0.000000e+00
2.800000e+01 -7.500000e-01 0.000000e+00
2.825000e+01 -1.000000e+00 0.000000e+00
2.750000e+01 -7.500000e-01 0.000000e+00
2.775000e+01 -1.000000e+00 0.000000e+00
2.700000e+01 -7.500000e-01 0.000000e+00
2.725000e+01 -1.000000e+00 0.000000e+00
2.650000e+01 -7.500000e-01 0.000000e+00
2.675000e+01 -1.000000e+00 0.000000e+00
2.600000e+01 -7.500000e-01 0.000000e+00
2.625000e+01 -1.000000e+00 0.000000e+00
2.550000e+01 -7.500000e-01 0.000000e+00
2.575000e+01 -1.000000e+00 0.000000e+00
2.500000e+01 -7.500000e-01 0.000000e+00
2.525000e+01 -1.000000e+00 0.000000e+00
2.450000e+01 -7.500000e-01 0.000000e+00
2.475000e+01 -1.000000e+00 0.000000e+00
2.400000e+01 -7.500000e-01 0.000000e+00
2.425000e+01 -1.000000e+00 0.000000e+00
2.350000e+01 -7.500000e-01 0.000000e+00
2.375000e+01 -1.000000e+00 0.000000e+00
2.300000e+01 -7.500000e-01 0.000000e+00
2.325000e+01 -1.000000e+00 0.000000e+00
2.250000e+01 -7.500000e-01 0.000000e+00
2.275000e+01 -1.000000e+00 0.000000e+00
2.200000e+01 -7.500000e-01 0.000000e+00
2.225000e+01 -1.000000e+00 0.000000e+00
2.150000e+01 -7.500000e-01 0.000000e+00
2.175000e+01 -1.000000e+00 0.000000e+00
2.100000e+01 -7.500000e-01 0.000000e+00
2.125000e+01 -1.000000e+00 0.000000e+00
2.050000e+01 -7.500000e-01 0.000000e+00
2.075000e+01 -1.000000e+00 0.000000e+00
2.000000e+01 -7.500000e-01 0.000000e+00
2.025000e+01 -1.000000e+00 0.000000e+00
1.950000e+01 -7.500000e-01 0.000000e+00
1.975000e+01 -1.000000e+00 0.000000e+00
1.900000e+01 -7.500000e-01 0.000000e+00
1.925000e+01 -1.000000e+00 0.000000e+00
1.850000e+01 -7.500000e-01 0.000000e+00
1.875000e+01 -1.000000e+00 0.000000e+00
1.800000e+01 -7.500000e-01 0.000000e+00
1.825000e+01 -1.000000e+00 0.000000e+00
1.750000e+01 -7.500000e-01 0.000000e+00
1.775000e+01 -1.000000e+00 0.000000e+00
1.700000e+01 -7.500000e-01 0.000000e+00
1.725000e+01 -1.000000e+00 0.000000e+00
1.650000e+01 -7.500000e-01 0.000000e+00
1.675000e+01 -1.000000e+00 0.000000e+00
1.600000e+01 -7.500000e-01 0.000000e+00
1.625000e+01 -1.000000e+00 0.000000e+00
1.550000e+01 -7.500000e-01 0.000000e+00
1.575000e+01 -1.000000e+00 0.000000e+00
1.500000e+01 -7.500000e-01 0.000000e+00
1.525000e+01 -1.000000e+00 0.000000e+00
2.950000e+01 -1.250000e+00 0.000000e+00
2.975000e+01 -1.500000e+00 0.000000e+00
3.000000e+01 -1.250000e+00 0.000000e+00
2.900000e+01 -1.250000e+00 0.000000e+00
2.925000e+01 -1.500000e+00 0.000000e+00
2.850000e+01 -1.250000e+00 0.000000e+00
2.875000e+01 -1.500000e+00 0.000000e+00
2.800000e+01 -1.250000e+00 0.000000e+00
2.825000e+01 -1.500000e+00 0.000000e+00
2.750000e+01 -1.250000e+00 0.000000e+00
2.775000e+01 -1.500000e+00 0.000000e+00
2.700000e+01 -1.250000e+00 0.000000e+00
2.725000e+01 -1.500000e+00 0.000000e+00
2.650000e+01 -1.250000e+00 0.000000e+00
2.675000e+01 -1.500000e+00 0.000000e+00
2.600000e+01 -1.250000e+00 0.000000e+00
2.625000e+01 -1.500000e+00 0.000000e+00
2.550000e+01 -1.250000e+00 0.000000e+00
2.575000e+01 -1.500000e+00 0.000000e+00
2.500000e+01 -1.250000e+00 0.000000e+00
2.525000e+01 -1.500000e+00 0.000000e+00
2.450000e+01 -1.250000e+00 0.000000e+00
2.475000e+01 -1.500000e+00 0.000000e+00
2.400000e+01 -1.250000e+00 0.000000e+00
2.425000e+01 -1.500000e+00 0.000000e+00
2.350000e+01 -1.250000e+00 0.000000e+00
2.375000e+01 -1.500000e+00 0.000000e+00
2.300000e+01 -1.250000e+00 0.000000e+00
2.325000e+01 -1.500000e+00 0.000000e+00
2.250000e+01 -1.250000e+00 0.000000e+00
2.275000e+01 -1.500000e+00 0.000000e+00
2.200000e+01 -1.250000e+00 0.000000e+00
2.225000e+01 -1.500000e+00 0.000000e+00
2.150000e+01 -1.250000e+00 0.000000e+00
2.175000e+01 -1.500000e+00 0.000000e+00
2.100000e+01 -1.250000e+00 0.000000e+00
2.125000e+01 -1.500000e+00 0.000000e+00
2.050000e+01 -1.250000e+00 0.000000e+00
2.075000e+01 -1.500000e+00 0.000000e+00
2.000000e+01 -1.250000e+00 0.000000e+00
2.025000e+01 -1.500000e+00 0.000000e+00
1.950000e+01 -1.250000e+00 0.000000e+00
1.975000e+01 -1.500000e+00 0.000000e+00
1.900000e+01 -1.250000e+00 0.000000e+00
1.925000e+01 -1.500000e+00 0.000000e+00
1.850000e+01 -1.250000e+00 0.000000e+00
1.875000e+01 -1.500000e+00 0.000000e+00
1.800000e+01 -1.250000e+00 0.000000e+00
1.825000e+01 -1.500000e+00 0.000000e+00
1.750000e+01 -1.250000e+00 0.000000e+00
1.775000e+01 -1.500000e+00 0.000000e+00
1.700000e+01 -1.250000e+00 0.000000e+00
1.725000e+01 -1.500000e+00 0.000000e+00
1.650000e+01 -1.250000e+00 0.000000e+00
1.675000e+01 -1.500000e+00 0.000000e+00
1.600000e+01 -1.250000e+00 0.000000e+00
1.625000e+01 -1.500000e+00 0.000000e+00
1.550000e+01 -1.250000e+00 0.000000e+00
1.575000e+01 -1.500000e+00 0.000000e+00
1.500000e+01 -1.250000e+00 0.000000e+00
1.525000e+01 -1.500000e+00 0.000000e+00
2.950000e+01 -1.750000e+00 0.000000e+00
2.975000e+01 -2.000000e+00 0.000000e+00
3.000000e+01 -1.750000e+00 0.000000e+00
2.900000e+01 -1.750000e+00 0.000000e+00
2.925000e+01 -2.000000e+00 0.000000e+00
2.850000e+01 -1.750000e+00 0.000000e+00
2.875000e+01 -2.000000e+00 0.000000e+00
2.800000e+01 -1.750000e+00 0.000000e+00
2.825000e+01 -2.000000e+00 0.000000e+00
2.750000e+01 -1.750000e+00 0.000000e+00
2.775000e+01 -2.000000e+00 0.000000e+00
2.700000e+01 -1.750000e+00 0.000000e+00
2.725000e+01 -2.000000e+00 0.000000e+00
2.650000e+01 -1.750000e+00 0.000000e+00
2.675000e+01 -2.000000e+00 0.000000e+00
2.600000e+01 -1.750000e+00 0.000000e+00
2.625000e+01 -2.000000e+00 0.000000e+00
2.550000e+01 -1.750000e+00 0.000000e+00
2.575000e+01 -2.000000e+00 0.000000e+00
2.500000e+01 -1.750000e+00 0.000000e+00
2.525000e+01 -2.000000e+00 0.000000e+00
2.450000e+01 -1.750000e+00 0.000000e+00
2.475000e+01 -2.000000e+00 0.000000e+00
2.400000e+01 -1.750000e+00 0.000000e+00
2.425000e+01 -2.000000e+00 0.000000e+00
2.350000e+01 -1.750000e+00 0.000000e+00
2.375000e+01 -2.000000e+00 0.000000e+00
2.300000e+01 -1.750000e+00 0.000000e+00
2.325000e+01 -2.000000e+00 0.000000e+00
2.250000e+01 -1.750000e+00 0.000000e+00
2.275000e+01 -2.000000e+00 0.000000e+00
2.200000e+01 -1.750000e+00 0.000000e+00
2.225000e+01 -2.000000e+00 0.000000e+00
2.150000e+01 -1.750000e+00 0.000000e+00
2.175000e+01 -2.000000e+00 0.000000e+00
2.100000e+01 -1.750000e+00 0.000000e+00
2.125000e+01 -2.000000e+00 0.000000e+00
2.050000e+01 -1.750000e+00 0.000000e+00
2.075000e+01 -2.000000e+00 0.000000e+00
2.000000e+01 -1.750000e+00 0.000000e+00
2.025000e+01 -2.000000e+00 0.000000e+00
1.950000e+01 -1.750000e+00 0.000000e+00
1.975000e+01 -2.000000e+00 0.000000e+00
1.900000e+01 -1.750000e+00 0.000000e+00
1.925000e+01 -2.000000e+00 0.000000e+00
1.850000e+01 -1.750000e+00 0.000000e+00
1.875000e+01 -2.000000e+00 0.000000e+00
1.800000e+01 -1.750000e+00 0.000000e+00
1.825000e+01 -2.000000e+00 0.000000e+00
1.750000e+01 -1.750000e+00 0.000000e+00
1.775000e+01 -2.000000e+00 0.000000e+00
1.700000e+01 -1.750000e+00 0.000000e+00
1.725000e+01 -2.000000e+00 0.000000e+00
1.650000e+01 -1.750000e+00 0.000000e+00
1.675000e+01 -2.000000e+00 0.000000e+00
1.600000e+01 -1.750000e+00 0.000000e+00
1.625000e+01 -2.000000e+00 0.000000e+00
1.550000e+01 -1.750000e+00 0.000000e+00
1.575000e+01 -2.000000e+00 0.000000e+00
1.500000e+01 -1.750000e+00 0.000000e+00
1.525000e+01 -2.000000e+00 0.000000e+00
2.950000e+01 -2.250000e+00 0.000000e+00
2.975000e+01 -2.500000e+00 0.000000e+00
3.000000e+01 -2.250000e+00 0.000000e+00
2.900000e+01 -2.250000e+00 0.000000e+00
2.925000e+01 -2.500000e+00 0.000000e+00
2.850000e+01 -2.250000e+00 0.000000e+00
2.875000e+01 -2.500000e+00 0.000000e+00
2.800000e+01 -2.250000e+00 0.000000e+00
2.825000e+01 -2.500000e+00 0.000000e+00
2.750000e+01 -2.250000e+00 0.000000e+00
2.775000e+01 -2.500000e+00 0.000000e+00
2.700000e+01 -2.250000e+00 0.000000e+00
2.725000e+01 -2.500000e+00 0.000000e+00
2.650000e+01 -2.250000e+00 0.000000e+00
2.675000e+01 -2.500000e+00 0.000000e+00
2.600000e+01 -2.250000e+00 0.000000e+00
2.625000e+01 -2.500000e+00 0.000000e+00
2.550000e+01 -2.250000e+00 0.000000e+00
2.575000e+01 -2.500000e+00 0.000000e+00
2.500000e+01 -2.250000e+00 0.000000e+00
2.525000e+01 -2.500000e+00 0.000000e+00
2.450000e+01 -2.250000e+00 0.000000e+00
2.475000e+01 -2.500000e+00 0.000000e+00
2.400000e+01 -2.250000e+00 0.000000e+00
2.425000e+01 -2.500000e+00 0.000000e+00
2.350000e+01 -2.250000e+00 0.000000e+00
2.375000e+01 -2.500000e+00 0.000000e+00
2.300000e+01 -2.250000e+00 0.000000e+00
2.325000e+01 -2.500000e+00 0.000000e+00
2.250000e+01 -2.250000e+00 0.000000e+00
2.275000e+01 -2.500000e+00 0.000000e+00
2.200000e+01 -2.250000e+00 0.000000e+00
2.225000e+01 -2.500000e+00 0.000000e+00
2.150000e+01 -2.250000e+00 0.000000e+00
2.175000e+01 -2.500000e+00 0.000000e+00
2.100000e+01 -2.250000e+00 0.000000e+00
2.125000e+01 -2.500000e+00 0.000000e+00
2.050000e+01 -2.250000e+00 0.000000e+00
2.075000e+01 -2.500000e+00 0.000000e+00
2.000000e+01 -2.250000e+00 0.000000e+00
2.025000e+01 -2.500000e+00 0.000000e+00
1.950000e+01 -2.250000e+00 0.000000e+00
1.975000e+01 -2.500000e+00 0.000000e+00
1.900000e+01 -2.250000e+00 0.000000e+00
1.925000e+01 -2.500000e+00 0.000000e+00
1.850000e+01 -2.250000e+00 0.000000e+00
1.875000e+01 -2.500000e+00 0.000000e+00
1.800000e+01 -2.250000e+00 0.000000e+00
1.825000e+01 -2.500000e+00 0.000000e+00
1.750000e+01 -2.250000e+00 0.000000e+00
1.775000e+01 -2.500000e+00 0.000000e+00
1.700000e+01 -2.250000e+00 0.000000e+00
1.725000e+01 -2.500000e+00 0.000000e+00
1.650000e+01 -2.250000e+00 0.000000e+00
1.675000e+01 -2.500000e+00 0.000000e+00
1.600000e+01 -2.250000e+00 0.000000e+00
1.625000e+01 -2.500000e+00 0.000000e+00
1.550000e+01 -2.250000e+00 0.000000e+00
1.575000e+01 -2.500000e+00 0.000000e+00
1.500000e+01 -2.250000e+00 0.000000e+00
1.525000e+01 -2.500000e+00 0.000000e+00
2.950000e+01 -2.750000e+00 0.000000e+00
2.975000e+01 -3.000000e+00 0.000000e+00
3.000000e+01 -2.750000e+00 0.000000e+00
2.900000e+01 -2.750000e+00 0.000000e+00
2.925000e+01 -3.000000e+00 0.000000e+00
2.850000e+01 -2.750000e+00 0.000000e+00
2.875000e+01 -3.000000e+00 0.000000e+00
2.800000e+01 -2.750000e+00 0.000000e+00
2.825000e+01 -3.000000e+00 0.000000e+00
2.750000e+01 -2.750000e+00 0.000000e+00
2.775000e+01 -3.000000e+00 0.000000e+00
2.700000e+01 -2.750000e+00 0.000000e+00
2.725000e+01 -3.000000e+00 0.000000e+00
2.650000e+01 -2.750000e+00 0.000000e+00
2.675000e+01 -3.000000e+00 0.000000e+00
2.600000e+01 -2.750000e+00 0.000000e+00
2.625000e+01 -3.000000e+00 0.000000e+00
2.550000e+01 -2.750000e+00 0.000000e+00
2.575000e+01 -3.000000e+00 0.000000e+00
2.500000e+01 -2.750000e+00 0.000000e+00
2.525000e+01 -3.000000e+00 0.000000e+00
2.450000e+01 -2.750000e+00 0.000000e+00
2.475000e+01 -3.000000e+00 0.000000e+00
2.400000e+01 -2.750000e+00 0.000000e+00
2.425000e+01 -3.000000e+00 0.000000e+00
2.350000e+01 -2.750000e+00 0.000000e+00
2.375000e+01 -3.000000e+00 0.000000e+00
2.300000e+01 -2.750000e+00 0.000000e+00
2.325000e+01 -3.000000e+00 0.000000e+00
2.250000e+01 -2.750000e+00 0.000000e+00
2.275000e+01 -3.000000e+00 0.000000e+00
2.200000e+01 -2.750000e+00 0.000000e+00
2.225000e+01 -3.000000e+00 0.000000e+00
2.150000e+01 -2.750000e+00 0.000000e+00
2.175000e+01 -3.000000e+00 0.000000e+00
2.100000e+01 -2.750000e+00 0.000000e+00
2.125000e+01 -3.000000e+00 0.000000e+00
2.050000e+01 -2.750000e+00 0.000000e+00
2.075000e+01 -3.000000e+00 0.000000e+00
2.000000e+01 -2.750000e+00 0.000000e+00
2.025000e+01 -3.000000e+00 0.000000e+00
1.950000e+01 -2.750000e+00 0.000000e+00
1.975000e+01 -3.000000e+00 0.000000e+00
1.900000e+01 -2.750000e+00 0.000000e+00
1.925000e+01 -3.000000e+00 0.000000e+00
1.850000e+01 -2.750000e+00 0.000000e+00
1.875000e+01 -3.000000e+00 0.000000e+00
1.800000e+01 -2.750000e+00 0.000000e+00
1.825000e+01 -3.000000e+00 0.000000e+00
1.750000e+01 -2.750000e+00 0.000000e+00
1.775000e+01 -3.000000e+00 0.000000e+00
1.700000e+01 -2.750000e+00 0.000000e+00
1.725000e+01 -3.000000e+00 0.000000e+00
1.650000e+01 -2.750000e+00 0.000000e+00
1.675000e+01 -3.000000e+00 0.000000e+00
1.600000e+01 -2.750000e+00 0.000000e+00
1.625000e+01 -3.000000e+00 0.000000e+00
1.550000e+01 -2.750000e+00 0.000000e+00
1.575000e+01 -3.000000e+00 0.000000e+00
1.500000e+01 -2.750000e+00 0.000000e+00
1.525000e+01 -3.000000e+00 0.000000e+00
2.950000e+01 -3.250000e+00 0.000000e+00
2.975000e+01 -3.500000e+00 0.000000e+00
3.000000e+01 -3.250000e+00 0.000000e+00
2.900000e+01 -3.250000e+00 0.000000e+00
2.925000e+01 -3.500000e+00 0.000000e+00
2.850000e+01 -3.250000e+00 0.000000e+00
2.875000e+01 -3.500000e+00 0.000000e+00
2.800000e+01 -3.250000e+00 0.000000e+00
2.825000e+01 -3.500000e+00 0.000000e+00
2.750000e+01 -3.250000e+00 0.000000e+00
2.775000e+01 -3.500000e+00 0.000000e+00
2.700000e+01 -3.250000e+00 0.000000e+00
2.725000e+01 -3.500000e+00 0.000000e+00
2.650000e+01 -3.250000e+00 0.000000e+00
2.675000e+01 -3.500000e+00 0.000000e+00
2.600000e+01 -3.250000e+00 0.000000e+00
2.625000e+01 -3.500000e+00 0.000000e+00
2.550000e+01 -3.250000e+00 0.000000e+00
2.575000e+01 -3.500000e+00 0.000000e+00
2.500000e+01 -3.250000e+00 0.000000e+00
2.525000e+01 -3.500000e+00 0.000000e+00
2.450000e+01 -3.250000e+00 0.000000e+00
2.475000e+01 -3.500000e+00 0.000000e+00
2.400000e+01 -3.250000e+00 0.000000e+00
2.425000e+01 -3.500000e+00 0.000000e+00
2.350000e+01 -3.250000e+00 0.000000e+00
2.375000e+01 -3.500000e+00 0.000000e+00
2.300000e+01 -3.250000e+00 0.000000e+00
2.325000e+01 -3.500000e+00 0.000000e+00
2.250000e+01 -3.250000e+00 0.000000e+00
2.275000e+01 -3.500000e+00 0.000000e+00
2.200000e+01 -3.250000e+00 0.000000e+00
2.225000e+01 -3.500000e+00 0.000000e+00
2.150000e+01 -3.250000e+00 0.000000e+00
2.175000e+01 -3.500000e+00 0.000000e+00
2.100000e+01 -3.250000e+00 0.000000e+00
2.125000e+01 -3.500000e+00 0.000000e+00
2.050000e+01 -3.250000e+00 0.000000e+00
2.075000e+01 -3.500000e+00 0.000000e+00
2.000000e+01 -3.250000e+00 0.000000e+00
2.025000e+01 -3.500000e+00 0.000000e+00
1.950000e+01 -3.250000e+00 0.000000e+00
1.975000e+01 -3.500000e+00 0.000000e+00
1.900000e+01 -3.250000e+00 0.000000e+00
1.925000e+01 -3.500000e+00 0.000000e+00
1.850000e+01 -3.250000e+00 0.000000e+00
1.875000e+01 -3.500000e+00 0.000000e+00
1.800000e+01 -3.250000e+00 0.000000e+00
1.825000e+01 -3.500000e+00 0.000000e+00
1.750000e+01 -3.250000e+00 0.000000e+00
1.775000e+01 -3.500000e+00 0.000000e+00
1.700000e+01 -3.250000e+00 0.000000e+00
1.725000e+01 -3.500000e+00 0.000000e+00
1.650000e+01 -3.250000e+00 0.000000e+00
1.675000e+01 -3.500000e+00 0.000000e+00
1.600000e+01 -3.250000e+00 0.000000e+00
1.625000e+01 -3.500000e+00 0.000000e+00
1.550000e+01 -3.250000e+00 0.000000e+00
1.575000e+01 -3.500000e+00 0.000000e+00
1.500000e+01 -3.250000e+00 0.000000e+00
1.525000e+01 -3.500000e+00 0.000000e+00
2.950000e+01 -3.750000e+00 0.000000e+00
2.975000e+01 -4.000000e+00 0.000000e+00
3.000000e+01 -3.750000e+00 0.000000e+00
2.900000e+01 -3.750000e+00 0.000000e+00
2.925000e+01 -4.000000e+00 0.000000e+00
2.850000e+01 -3.750000e+00 0.000000e+00
2.875000e+01 -4.000000e+00 0.000000e+00
2.800000e+01 -3.750000e+00 0.000000e+00
2.825000e+01 -4.000000e+00 0.000000e+00
2.750000e+01 -3.750000e+00 0.000000e+00
2.775000e+01 -4.000000e+00 0.000000e+00
2.700000e+01 -3.750000e+00 0.000000e+00
2.725000e+01 -4.000000e+00 0.000000e+00
2.650000e+01 -3.750000e+00 0.000000e+00
2.675000e+01 -4.000000e+00 0.000000e+00
2.600000e+01 -3.750000e+00 0.000000e+00
2.625000e+01 -4.000000e+00 0.000000e+00
2.550000e+01 -3.750000e+00 0.000000e+00
2.575000e+01 -4.000000e+00 0.000000e+00
2.500000e+01 -3.750000e+00 0.000000e+00
2.525000e+01 -4.000000e+00 0.000000e+00
2.450000e+01 -3.750000e+00 0.000000e+00
2.475000e+01 -4.000000e+00 0.000000e+00
2.400000e+01 -3.750000e+00 0.000000e+00
2.425000e+01 -4.000000e+00 0.000000e+00
2.350000e+01 -3.750000e+00 0.000000e+00
2.375000e+01 -4.000000e+00 0.000000e+00
2.300000e+01 -3.750000e+00 0.000000e+00
2.325000e+01 -4.000000e+00 0.000000e+00
2.250000e+01 -3.750000e+00 0.000000e+00
2.275000e+01 -4.000000e+00 0.000000e+00
2.200000e+01 -3.750000e+00 0.000000e+00
2.225000e+01 -4.000000e+00 0.000000e+00
2.150000e+01 -3.750000e+00 0.000000e+00
2.175000e+01 -4.000000e+00 0.000000e+00
2.100000e+01 -3.750000e+00 0.000000e+00
2.125000e+01 -4.000000e+00 0.000000e+00
2.050000e+01 -3.750000e+00 0.000000e+00
2.075000e+01 -4.000000e+00 0.000000e+00
2.000000e+01 -3.750000e+00 0.000000e+00
2.025000e+01 -4.000000e+00 0.000000e+00
1.950000e+01 -3.750000e+00 0.000000e+00
1.975000e+01 -4.000000e+00 0.000000e+00
1.900000e+01 -3.750000e+00 0.000000e+00
1.925000e+01 -4.000000e+00 0.000000e+00
1.850000e+01 -3.750000e+00 0.000000e+00
1.875000e+01 -4.000000e+00 0.000000e+00
1.800000e+01 -3.750000e+00 0.000000e+00
1.825000e+01 -4.000000e+00 0.000000e+00
1.750000e+01 -3.750000e+00 0.000000e+00
1.775000e+01 -4.000000e+00 0.000000e+00
1.700000e+01 -3.750000e+00 0.000000e+00
1.725000e+01 -4.000000e+00 0.000000e+00
1.650000e+01 -3.750000e+00 0.000000e+00
1.675000e+01 -4.000000e+00 0.000000e+00
1.600000e+01 -3.750000e+00 0.000000e+00
1.625000e+01 -4.000000e+00 0.000000e+00
1.550000e+01 -3.750000e+00 0.000000e+00
1.575000e+01 -4.000000e+00 0.000000e+00
1.500000e+01 -3.750000e+00 0.000000e+00
1.525000e+01 -4.000000e+00 0.000000e+00
2.950000e+01 -4.250000e+00 0.000000e+00
2.975000e+01 -4.500000e+00 0.000000e+00
3.000000e+01 -4.250000e+00 0.000000e+00
2.900000e+01 -4.250000e+00 0.000000e+00
2.925000e+01 -4.500000e+00 0.000000e+00
2.850000e+01 -4.250000e+00 0.000000e+00
2.875000e+01 -4.500000e+00 0.000000e+00
2.800000e+01 -4.250000e+00 0.000000e+00
2.825000e+01 -4.500000e+00 0.000000e+00
2.750000e+01 -4.250000e+00 0.000000e+00
2.775000e+01 -4.500000e+00 0.000000e+00
2.700000e+01 -4.250000e+00 0.000000e+00
2.725000e+01 -4.500000e+00 0.000000e+00
2.650000e+01 -4.250000e+00 0.000000e+00
2.675000e+01 -4.500000e+00 0.000000e+00
2.600000e+01 -4.250000e+00 0.000000e+00
2.625000e+01 -4.500000e+00 0.000000e+00
2.550000e+01 -4.250000e+00 0.000000e+00
2.575000e+01 -4.500000e+00 0.000000e+00
2.500000e+01 -4.250000e+00 0.000000e+00
2.525000e+01 -4.500000e+00 0.000000e+00
2.450000e+01 -4.250000e+00 0.000000e+00
2.475000e+01 -4.500000e+00 0.000000e+00
2.400000e+01 -4.250000e+00 0.000000e+00
2.425000e+01 -4.500000e+00 0.000000e+00
2.350000e+01 -4.250000e+00 0.000000e+00
2.375000e+01 -4.500000e+00 0.000000e+00
2.300000e+01 -4.250000e+00 0.000000e+00
2.325000e+01 -4.500000e+00 0.000000e+00
2.250000e+01 -4.250000e+00 0.000000e+00
2.275000e+01 -4.500000e+00 0.000000e+00
2.200000e+01 -4.250000e+00 0.000000e+00
2.225000e+01 -4.500000e+00 0.000000e+00
2.150000e+01 -4.250000e+00 0.000000e+00
2.175000e+01 -4.500000e+00 0.000000e+00
2.100000e+01 -4.250000e+00 0.000000e+00
2.125000e+01 -4.500000e+00 0.000000e+00
2.050000e+01 -4.250000e+00 0.000000e+00
2.075000e+01 -4.500000e+00 0.000000e+00
2.000000e+01 -4.250000e+00 0.000000e+00
2.025000e+01 -4.500000e+00 0.000000e+00
1.950000e+01 -4.250000e+00 0.000000e+00
1.975000e+01 -4.500000e+00 0.000000e+00
1.900000e+01 -4.250000e+00 0.000000e+00
1.925000e+01 -4.500000e+00 0.000000e+00
1.850000e+01 -4.250000e+00 0.000000e+00
1.875000e+01 -4.500000e+00 0.000000e+00
1.800000e+01 -4.250000e+00 0.000000e+00
1.825000e+01 -4.500000e+00 0.000000e+00
1.750000e+01 -4.250000e+00 0.000000e+00
1.775000e+01 -4.500000e+00 0.000000e+00
1.700000e+01 -4.250000e+00 0.000000e+00
1.725000e+01 -4.500000e+00 0.000000e+00
1.650000e+01 -4.250000e+00 0.000000e+00
1.675000e+01 -4.500000e+00 0.000000e+00
1.600000e+01 -4.250000e+00 0.000000e+00
1.625000e+01 -4.500000e+00 0.000000e+00
1.550000e+01 -4.250000e+00 0.000000e+00
1.575000e+01 -4.500000e+00 0.000000e+00
1.500000e+01 -4.250000e+00 0.000000e+00
1.525000e+01 -4.500000e+00 0.000000e+00
2.950000e+01 -4.750000e+00 0.000000e+00
2.975000e+01 -5.000000e+00 0.000000e+00
3.000000e+01 -4.750000e+00 0.000000e+00
2.900000e+01 -4.750000e+00 0.000000e+00
2.925000e+01 -5.000000e+00 0.000000e+00
2.850000e+01 -4.750000e+00 0.000000e+00
2.875000e+01 -5.000000e+00 0.000000e+00
2.800000e+01 -4.750000e+00 0.000000e+00
2.825000e+01 -5.000000e+00 0.000000e+00
2.750000e+01 -4.750000e+00 0.000000e+00
2.775000e+01 -5.000000e+00 0.000000e+00
2.700000e+01 -4.750000e+00 0.000000e+00
2.725000e+01 -5.000000e+00 0.000000e+00
2.650000e+01 -4.750000e+00 0.000000e+00
2.675000e+01 -5.000000e+00 0.000000e+00
2.600000e+01 -4.750000e+00 0.000000e+00
2.625000e+01 -5.000000e+00 0.000000e+00
2.550000e+01 -4.750000e+00 0.000000e+00
2.575000e+01 -5.000000e+00 0.000000e+00
2.500000e+01 -4.750000e+00 0.000000e+00
2.525000e+01 -5.000000e+00 0.000000e+00
2.450000e+01 -4.750000e+00 0.000000e+00
2.475000e+01 -5.000000e+00 0.000000e+00
2.400000e+01 -4.750000e+00 0.000000e+00
2.425000e+01 -5.000000e+00 0.000000e+00
2.350000e+01 -4.750000e+00 0.000000e+00
2.375000e+01 -5.000000e+00 0.000000e+00
2.300000e+01 -4.750000e+00 0.000000e+00
2.325000e+01 -5.000000e+00 0.000000e+00
2.250000e+01 -4.750000e+00 0.000000e+00
2.275000e+01 -5.000000e+00 0.000000e+00
2.200000e+01 -4.750000e+00 0.000000e+00
2.225000e+01 -5.000000e+00 0.000000e+00
2.150000e+01 -4.750000e+00 0.000000e+00
2.175000e+01 -5.000000e+00 0.000000e+00
2.100000e+01 -4.750000e+00 0.000000e+00
2.125000e+01 -5.000000e+00 0.000000e+00
2.050000e+01 -4.750000e+00 0.000000e+00
2.075000e+01 -5.000000e+00 0.000000e+00
2.000000e+01 -4.750000e+00 0.000000e+00
2.025000e+01 -5.000000e+00 0.000000e+00
1.950000e+01 -4.750000e+00 0.000000e+00
1.975000e+01 -5.000000e+00 0.000000e+00
1.900000e+01 -4.750000e+00 0.000000e+00
1.925000e+01 -5.000000e+00 0.000000e+00
1.850000e+01 -4.750000e+00 0.000000e+00
1.875000e+01 -5.000000e+00 0.000000e+00
1.800000e+01 -4.750000e+00 0.000000e+00
1.825000e+01 -5.000000e+00 0.000000e+00
1.750000e+01 -4.750000e+00 0.000000e+00
1.775000e+01 -5.000000e+00 0.000000e+00
1.700000e+01 -4.750000e+00 0.000000e+00
1.725000e+01 -5.000000e+00 0.000000e+00
1.650000e+01 -4.750000e+00 0.000000e+00
1.675000e+01 -5.000000e+00 0.000000e+00
1.600000e+01 -4.750000e+00 0.000000e+00
1.625000e+01 -5.000000e+00 0.000000e+00
1.550000e+01 -4.750000e+00 0.000000e+00
1.575000e+01 -5.000000e+00 0.000000e+00
1.500000e+01 -4.750000e+00 0.000000e+00
1.525000e+01 -5.000000e+00 0.000000e+00
2.950000e+01 -5.250000e+00 0.000000e+00
2.975000e+01 -5.500000e+00 0.000000e+00
3.000000e+01 -5.250000e+00 0.000000e+00
2.900000e+01 -5.250000e+00 0.000000e+00
2.925000e+01 -5.500000e+00 0.000000e+00
2.850000e+01 -5.250000e+00 0.000000e+00
2.875000e+01 -5.500000e+00 0.000000e+00
2.800000e+01 -5.250000e+00 0.000000e+00
2.825000e+01 -5.500000e+00 0.000000e+00
2.750000e+01 -5.250000e+00 0.000000e+00
2.775000e+01 -5.500000e+00 0.000000e+00
2.700000e+01 -5.250000e+00 0.000000e+00
2.725000e+01 -5.500000e+00 0.000000e+00
2.650000e+01 -5.250000e+00 0.000000e+00
2.675000e+01 -5.500000e+00 0.000000e+00
2.600000e+01 -5.250000e+00 0.000000e+00
2.625000e+01 -5.500000e+00 0.000000e+00
2.550000e+01 -5.250000e+00 0.000000e+00
2.575000e+01 -5.500000e+00 0.000000e+00
2.500000e+01 -5.250000e+00 0.000000e+00
2.525000e+01 -5.500000e+00 0.000000e+00
2.450000e+01 -5.250000e+00 0.000000e+00
2.475000e+01 -5.500000e+00 0.000000e+00
2.400000e+01 -5.250000e+00 0.000000e+00
2.425000e+01 -5.500000e+00 0.000000e+00
2.350000e+01 -5.250000e+00 0.000000e+00
2.375000e+01 -5.500000e+00 0.000000e+00
2.300000e+01 -5.250000e+00 0.000000e+00
2.325000e+01 -5.500000e+00 0.000000e+00
2.250000e+01 -5.250000e+00 0.000000e+00
2.275000e+01 -5.500000e+00 0.000000e+00
2.200000e+01 -5.250000e+00 0.000000e+00
2.225000e+01 -5.500000e+00 0.000000e+00
2.150000e+01 -5.250000e+00 0.000000e+00
2.175000e+01 -5.500000e+00 0.000000e+00
2.100000e+01 -5.250000e+00 0.000000e+00
2.125000e+01 -5.500000e+00 0.000000e+00
2.050000e+01 -5.250000e+00 0.000000e+00
2.075000e+01 -5.500000e+00 0.000000e+00
2.000000e+01 -5.250000e+00 0.000000e+00
2.025000e+01 -5.500000e+00 0.000000e+00
1.950000e+01 -5.250000e+00 0.000000e+00
1.975000e+01 -5.500000e+00 0.000000e+00
1.900000e+01 -5.250000e+00 0.000000e+00
1.925000e+01 -5.500000e+00 0.000000e+00
1.850000e+01 -5.250000e+00 0.000000e+00
1.875000e+01 -5.500000e+00 0.000000e+00
1.800000e+01 -5.250000e+00 0.000000e+00
1.825000e+01 -5.500000e+00 0.000000e+00
1.750000e+01 -5.250000e+00 0.000000e+00
1.775000e+01 -5.500000e+00 0.000000e+00
1.700000e+01 -5.250000e+00 0.000000e+00
1.725000e+01 -5.500000e+00 0.000000e+00
1.650000e+01 -5.250000e+00 0.000000e+00
1.675000e+01 -5.500000e+00 0.000000e+00
1.600000e+01 -5.250000e+00 0.000000e+00
1.625000e+01 -5.500000e+00 0.000000e+00
1.550000e+01 -5.250000e+00 0.000000e+00
1.575000e+01 -5.500000e+00 0.000000e+00
1.500000e+01 -5.250000e+00 0.000000e+00
1.525000e+01 -5.500000e+00 0.000000e+00
2.950000e+01 -5.750000e+00 0.000000e+00
2.975000e+01 -6.000000e+00 0.000000e+00
3.000000e+01 -5.750000e+00 0.000000e+00
2.900000e+01 -5.750000e+00 0.000000e+00
2.925000e+01 -6.000000e+00 0.000000e+00
2.850000e+01 -5.750000e+00 0.000000e+00
2.875000e+01 -6.000000e+00 0.000000e+00
2.800000e+01 -5.750000e+00 0.000000e+00
2.825000e+01 -6.000000e+00 0.000000e+00
2.750000e+01 -5.750000e+00 0.000000e+00
2.775000e+01 -6.000000e+00 0.000000e+00
2.700000e+01 -5.750000e+00 0.000000e+00
2.725000e+01 -6.000000e+00 0.000000e+00
2.650000e+01 -5.750000e+00 0.000000e+00
2.675000e+01 -6.000000e+00 0.000000e+00
2.600000e+01 -5.750000e+00 0.000000e+00
2.625000e+01 -6.000000e+00 0.000000e+00
2.550000e+01 -5.750000e+00 0.000000e+00
2.575000e+01 -6.000000e+00 0.000000e+00
2.500000e+01 -5.750000e+00 0.000000e+00
2.525000e+01 -6.000000e+00 0.000000e+00
2.450000e+01 -5.750000e+00 0.000000e+00
2.475000e+01 -6.000000e+00 0.000000e+00
2.400000e+01 -5.750000e+00 0.000000e+00
2.425000e+01 -6.000000e+00 0.000000e+00
2.350000e+01 -5.750000e+00 0.000000e+00
2.375000e+01 -6.000000e+00 0.000000e+00
2.300000e+01 -5.750000e+00 0.000000e+00
2.325000e+01 -6.000000e+00 0.000000e+00
2.250000e+01 -5.750000e+00 0.000000e+00
2.275000e+01 -6.000000e+00 0.000000e+00
2.200000e+01 -5.750000e+00 0.000000e+00
2.225000e+01 -6.000000e+00 0.000000e+00
2.150000e+01 -5.750000e+00 0.000000e+00
2.175000e+01 -6.000000e+00 0.000000e+00
2.100000e+01 -5.750000e+00 0.000000e+00
2.125000e+01 -6.000000e+00 0.000000e+00
2.050000e+01 -5.750000e+00 0.000000e+00
2.075000e+01 -6.000000e+00 0.000000e+00
2.000000e+01 -5.750000e+00 0.000000e+00
2.025000e+01 -6.000000e+00 0.000000e+00
1.950000e+01 -5.750000e+00 0.000000e+00
1.975000e+01 -6.000000e+00 0.000000e+00
1.900000e+01 -5.750000e+00 0.000000e+00
1.925000e+01 -6.000000e+00 0.000000e+00
1.850000e+01 -5.750000e+00 0.000000e+00
1.875000e+01 -6.000000e+00 0.000000e+00
1.800000e+01 -5.750000e+00 0.000000e+00
1.825000e+01 -6.000000e+00 0.000000e+00
1.750000e+01 -5.750000e+00 0.000000e+00
1.775000e+01 -6.000000e+00 0.000000e+00
1.700000e+01 -5.750000e+00 0.000000e+00
1.725000e+01 -6.000000e+00 0.000000e+00
1.650000e+01 -5.750000e+00 0.000000e+00
1.675000e+01 -6.000000e+00 0.000000e+00
1.600000e+01 -5.750000e+00 0.000000e+00
1.625000e+01 -6.000000e+00 0.000000e+00
1.550000e+01 -5.750000e+00 0.000000e+00
1.575000e+01 -6.000000e+00 0.000000e+00
1.500000e+01 -5.750000e+00 0.000000e+00
1.525000e+01 -6.000000e+00 0.000000e+00
2.950000e+01 -6.250000e+00 0.000000e+00
2.975000e+01 -6.500000e+00 0.000000e+00
3.000000e+01 -6.250000e+00 0.000000e+00
2.900000e+01 -6.250000e+00 0.000000e+00
2.925000e+01 -6.500000e+00 0.000000e+00
2.850000e+01 -6.250000e+00 0.000000e+00
2.875000e+01 -6.500000e+00 0.000000e+00
2.800000e+01 -6.250000e+00 0.000000e+00
2.825000e+01 -6.500000e+00 0.000000e+00
2.750000e+01 -6.250000e+00 0.000000e+00
2.775000e+01 -6.500000e+00 0.000000e+00
2.700000e+01 -6.250000e+00 0.000000e+00
2.725000e+01 -6.500000e+00 0.000000e+00
2.650000e+01 -6.250000e+00 0.000000e+00
2.675000e+01 -6.500000e+00 0.000000e+00
2.600000e+01 -6.250000e+00 0.000000e+00
2.625000e+01 -6.500000e+00 0.000000e+00
2.550000e+01 -6.250000e+00 0.000000e+00
2.575000e+01 -6.500000e+00 0.000000e+00
2.500000e+01 -6.250000e+00 0.000000e+00
2.525000e+01 -6.500000e+00 0.000000e+00
2.450000e+01 -6.250000e+00 0.000000e+00
2.475000e+01 -6.500000e+00 0.000000e+00
2.400000e+01 -6.250000e+00 0.000000e+00
2.425000e+01 -6.500000e+00 0.000000e+00
2.350000e+01 -6.250000e+00 0.000000e+00
2.375000e+01 -6.500000e+00 0.000000e+00
2.300000e+01 -6.250000e+00 0.000000e+00
2.325000e+01 -6.500000e+00 0.000000e+00
2.250000e+01 -6.250000e+00 0.000000e+00
2.275000e+01 -6.500000e+00 0.000000e+00
2.200000e+01 -6.250000e+00 0.000000e+00
2.225000e+01 -6.500000e+00 0.000000e+00
2.150000e+01 -6.250000e+00 0.000000e+00
2.175000e+01 -6.500000e+00 0.000000e+00
2.100000e+01 -6.250000e+00 0.000000e+00
2.125000e+01 -6.500000e+00 0.000000e+00
2.050000e+01 -6.250000e+00 0.000000e+00
2.075000e+01 -6.500000e+00 0.000000e+00
2.000000e+01 -6.250000e+00 0.000000e+00
2.025000e+01 -6.500000e+00 0.000000e+00
1.950000e+01 -6.250000e+00 0.000000e+00
1.975000e+01 -6.500000e+00 0.000000e+00
1.900000e+01 -6.250000e+00 0.000000e+00
1.925000e+01 -6.500000e+00 0.000000e+00
1.850000e+01 -6.250000e+00 0.000000e+00
1.875000e+01 -6.500000e+00 0.000000e+00
1.800000e+01 -6.250000e+00 0.000000e+00
1.825000e+01 -6.500000e+00 0.000000e+00
1.750000e+01 -6.250000e+00 0.000000e+00
1.775000e+01 -6.500000e+00 0.000000e+00
1.700000e+01 -6.250000e+00 0.000000e+00
1.725000e+01 -6.500000e+00 0.000000e+00
1.650000e+01 -6.250000e+00 0.000000e+00
1.675000e+01 -6.500000e+00 0.000000e+00
1.600000e+01 -6.250000e+00 0.000000e+00
1.625000e+01 -6.500000e+00 0.000000e+00
1.550000e+01 -6.250000e+00 0.000000e+00
1.575000e+01 -6.500000e+00 0.000000e+00
1.500000e+01 -6.250000e+00 0.000000e+00
1.525000e+01 -6.500000e+00 0.000000e+00
2.950000e+01 -6.750000e+00 0.000000e+00
2.975000e+01 -7.000000e+00 0.000000e+00
3.000000e+01 -6.750000e+00 0.000000e+00
2.900000e+01 -6.750000e+00 0.000000e+00
2.925000e+01 -7.000000e+00 0.000000e+00
2.850000e+01 -6.750000e+00 0.000000e+00
2.875000e+01 -7.000000e+00 0.000000e+00
2.800000e+01 -6.750000e+00 0.000000e+00
2.825000e+01 -7.000000e+00 0.000000e+00
2.750000e+01 -6.750000e+00 0.000000e+00
2.775000e+01 -7.000000e+00 0.000000e+00
2.700000e+01 -6.750000e+00 0.000000e+00
2.725000e+01 -7.000000e+00 0.000000e+00
2.650000e+01 -6.750000e+00 0.000000e+00
2.675000e+01 -7.000000e+00 0.000000e+00
2.600000e+01 -6.750000e+00 0.000000e+00
2.625000e+01 -7.000000e+00 0.000000e+00
2.550000e+01 -6.750000e+00 0.000000e+00
2.575000e+01 -7.000000e+00 0.000000e+00
2.500000e+01 -6.750000e+00 0.000000e+00
2.525000e+01 -7.000000e+00 0.000000e+00
2.450000e+01 -6.750000e+00 0.000000e+00
2.475000e+01 -7.000000e+00 0.000000e+00
2.400000e+01 -6.750000e+00 0.000000e+00
2.425000e+01 -7.000000e+00 0.000000e+00
2.350000e+01 -6.750000e+00 0.000000e+00
2.375000e+01 -7.000000e+00 0.000000e+00
2.300000e+01 -6.750000e+00 0.000000e+00
2.325000e+01 -7.000000e+00 0.000000e+00
2.250000e+01 -6.750000e+00 0.000000e+00
2.275000e+01 -7.000000e+00 0.000000e+00
2.200000e+01 -6.750000e+00 0.000000e+00
2.225000e+01 -7.000000e+00 0.000000e+00
2.150000e+01 -6.750000e+00 0.000000e+00
2.175000e+01 -7.000000e+00 0.000000e+00
2.100000e+01 -6.750000e+00 0.000000e+00
2.125000e+01 -7.000000e+00 0.000000e+00
2.050000e+01 -6.750000e+00 0.000000e+00
2.075000e+01 -7.000000e+00 0.000000e+00
2.000000e+01 -6.750000e+00 0.000000e+00
2.025000e+01 -7.000000e+00 0.000000e+00
1.950000e+01 -6.750000e+00 0.000000e+00
1.975000e+01 -7.000000e+00 0.000000e+00
1.900000e+01 -6.750000e+00 0.000000e+00
1.925000e+01 -7.000000e+00 0.000000e+00
1.850000e+01 -6.750000e+00 0.000000e+00
1.875000e+01 -7.000000e+00 0.000000e+00
1.800000e+01 -6.750000e+00 0.000000e+00
1.825000e+01 -7.000000e+00 0.000000e+00
1.750000e+01 -6.750000e+00 0.000000e+00
1.775000e+01 -7.000000e+00 0.000000e+00
1.700000e+01 -6.750000e+00 0.000000e+00
1.725000e+01 -7.000000e+00 0.000000e+00
1.650000e+01 -6.750000e+00 0.000000e+00
1.675000e+01 -7.000000e+00 0.000000e+00
1.600000e+01 -6.750000e+00 0.000000e+00
1.625000e+01 -7.000000e+00 0.000000e+00
1.550000e+01 -6.750000e+00 0.000000e+00
1.575000e+01 -7.000000e+00 0.000000e+00
1.500000e+01 -6.750000e+00 0.000000e+00
1.525000e+01 -7.000000e+00 0.000000e+00
2.950000e+01 -7.250000e+00 0.000000e+00
2.975000e+01 -7.500000e+00 0.000000e+00
3.000000e+01 -7.250000e+00 0.000000e+00
2.900000e+01 -7.250000e+00 0.000000e+00
2.925000e+01 -7.500000e+00 0.000000e+00
2.850000e+01 -7.250000e+00 0.000000e+00
2.875000e+01 -7.500000e+00 0.000000e+00
2.800000e+01 -7.250000e+00 0.000000e+00
2.825000e+01 -7.500000e+00 0.000000e+00
2.750000e+01 -7.250000e+00 0.000000e+00
2.775000e+01 -7.500000e+00 0.000000e+00
2.700000e+01 -7.250000e+00 0.000000e+00
2.725000e+01 -7.500000e+00 0.000000e+00
2.650000e+01 -7.250000e+00 0.000000e+00
2.675000e+01 -7.500000e+00 0.000000e+00
2.600000e+01 -7.250000e+00 0.000000e+00
2.625000e+01 -7.500000e+00 0.000000e+00
2.550000e+01 -7.250000e+00 0.000000e+00
2.575000e+01 -7.500000e+00 0.000000e+00
2.500000e+01 -7.250000e+00 0.000000e+00
2.525000e+01 -7.500000e+00 0.000000e+00
2.450000e+01 -7.250000e+00 0.000000e+00
2.475000e+01 -7.500000e+00 0.000000e+00
2.400000e+01 -7.250000e+00 0.000000e+00
2.425000e+01 -7.500000e+00 0.000000e+00
2.350000e+01 -7.250000e+00 0.000000e+00
2.375000e+01 -7.500000e+00 0.000000e+00
2.300000e+01 -7.250000e+00 0.000000e+00
2.325000e+01 -7.500000e+00 0.000000e+00
2.250000e+01 -7.250000e+00 0.000000e+00
2.275000e+01 -7.500000e+00 0.000000e+00
2.200000e+01 -7.250000e+00 0.000000e+00
2.225000e+01 -7.500000e+00 0.000000e+00
2.150000e+01 -7.250000e+00 0.000000e+00
2.175000e+01 -7.500000e+00 0.000000e+00
2.100000e+01 -7.250000e+00 0.000000e+00
2.125000e+01 -7.500000e+00 0.000000e+00
2.050000e+01 -7.250000e+00 0.000000e+00
2.075000e+01 -7.500000e+00 0.000000e+00
2.000000e+01 -7.250000e+00 0.000000e+00
2.025000e+01 -7.500000e+00 0.000000e+00
1.950000e+01 -7.250000e+00 0.000000e+00
1.975000e+01 -7.500000e+00 0.000000e+00
1.900000e+01 -7.250000e+00 0.000000e+00
1.925000e+01 -7.500000e+00 0.000000e+00
1.850000e+01 -7.250000e+00 0.000000e+00
1.875000e+01 -7.500000e+00 0.000000e+00
1.800000e+01 -7.250000e+00 0.000000e+00
1.825000e+01 -7.500000e+00 0.000000e+00
1.750000e+01 -7.250000e+00 0.000000e+00
1.775000e+01 -7.500000e+00 0.000000e+00
1.700000e+01 -7.250000e+00 0.000000e+00
1.725000e+01 -7.500000e+00 0.000000e+00
1.650000e+01 -7.250000e+00 0.000000e+00
1.675000e+01 -7.500000e+00 0.000000e+00
1.600000e+01 -7.250000e+00 0.000000e+00
1.625000e+01 -7.500000e+00 0.000000e+00
1.550000e+01 -7.250000e+00 0.000000e+00
1.575000e+01 -7.500000e+00 0.000000e+00
1.500000e+01 -7.250000e+00 0.000000e+00
1.525000e+01 -7.500000e+00 0.000000e+00
2.950000e+01 -7.750000e+00 0.000000e+00
2.975000e+01 -8.000000e+00 0.000000e+00
3.000000e+01 -7.750000e+00 0.000000e+00
2.900000e+01 -7.750000e+00 0.000000e+00
2.925000e+01 -8.000000e+00 0.000000e+00
2.850000e+01 -7.750000e+00 0.000000e+00
2.875000e+01 -8.000000e+00 0.000000e+00
2.800000e+01 -7.750000e+00 0.000000e+00
2.825000e+01 -8.000000e+00 0.000000e+00
2.750000e+01 -7.750000e+00 0.000000e+00
2.775000e+01 -8.000000e+00 0.000000e+00
2.700000e+01 -7.750000e+00 0.000000e+00
2.725000e+01 -8.000000e+00 0.000000e+00
2.650000e+01 -7.750000e+00 0.000000e+00
2.675000e+01 -8.000000e+00 0.000000e+00
2.600000e+01 -7.750000e+00 0.000000e+00
2.625000e+01 -8.000000e+00 0.000000e+00
2.550000e+01 -7.750000e+00 0.000000e+00
2.575000e+01 -8.000000e+00 0.000000e+00
2.500000e+01 -7.750000e+00 0.000000e+00
2.525000e+01 -8.000000e+00 0.000000e+00
2.450000e+01 -7.750000e+00 0.000000e+00
2.475000e+01 -8.000000e+00 0.000000e+00
2.400000e+01 -7.750000e+00 0.000000e+00
2.425000e+01 -8.000000e+00 0.000000e+00
2.350000e+01 -7.750000e+00 0.000000e+00
2.375000e+01 -8.000000e+00 0.000000e+00
2.300000e+01 -7.750000e+00 0.000000e+00
2.325000e+01 -8.000000e+00 0.000000e+00
2.250000e+01 -7.750000e+00 0.000000e+00
2.275000e+01 -8.000000e+00 0.000000e+00
2.200000e+01 -7.750000e+00 0.000000e+00
2.225000e+01 -8.000000e+00 0.000000e+00
2.150000e+01 -7.750000e+00 0.000000e+00
2.175000e+01 -8.000000e+00 0.000000e+00
2.100000e+01 -7.750000e+00 0.000000e+00
2.125000e+01 -8.000000e+00 0.000000e+00
2.050000e+01 -7.750000e+00 0.000000e+00
2.075000e+01 -8.000000e+00 0.000000e+00
2.000000e+01 -7.750000e+00 0.000000e+00
2.025000e+01 -8.000000e+00 0.000000e+00
1.950000e+01 -7.750000e+00 0.000000e+00
1.975000e+01 -8.000000e+00 0.000000e+00
1.900000e+01 -7.750000e+00 0.000000e+00
1.925000e+01 -8.000000e+00 0.000000e+00
1.850000e+01 -7.750000e+00 0.000000e+00
1.875000e+01 -8.000000e+00 0.000000e+00
1.800000e+01 -7.750000e+00 0.000000e+00
1.825000e+01 -8.000000e+00 0.000000e+00
1.750000e+01 -7.750000e+00 0.000000e+00
1.775000e+01 -8.000000e+00 0.000000e+00
1.700000e+01 -7.750000e+00 0.000000e+00
1.725000e+01 -8.000000e+00 0.000000e+00
1.650000e+01 -7.750000e+00 0.000000e+00
1.675000e+01 -8.000000e+00 0.000000e+00
1.600000e+01 -7.750000e+00 0.000000e+00
1.625000e+01 -8.000000e+00 0.000000e+00
1.550000e+01 -7.750000e+00 0.000000e+00
1.575000e+01 -8.000000e+00 0.000000e+00
1.500000e+01 -7.750000e+00 0.000000e+00
1.525000e+01 -8.000000e+00 0.000000e+00
2.950000e+01 -8.250000e+00 0.000000e+00
2.975000e+01 -8.500000e+00 0.000000e+00
3.000000e+01 -8.250000e+00 0.000000e+00
2.900000e+01 -8.250000e+00 0.000000e+00
2.925000e+01 -8.500000e+00 0.000000e+00
2.850000e+01 -8.250000e+00 0.000000e+00
2.875000e+01 -8.500000e+00 0.000000e+00
2.800000e+01 -8.250000e+00 0.000000e+00
2.825000e+01 -8.500000e+00 0.000000e+00
2.750000e+01 -8.250000e+00 0.000000e+00
2.775000e+01 -8.500000e+00 0.000000e+00
2.700000e+01 -8.250000e+00 0.000000e+00
2.725000e+01 -8.500000e+00 0.000000e+00
2.650000e+01 -8.250000e+00 0.000000e+00
2.675000e+01 -8.500000e+00 0.000000e+00
2.600000e+01 -8.250000e+00 0.000000e+00
2.625000e+01 -8.500000e+00 0.000000e+00
2.550000e+01 -8.250000e+00 0.000000e+00
2.575000e+01 -8.500000e+00 0.000000e+00
2.500000e+01 -8.250000e+00 0.000000e+00
2.525000e+01 -8.500000e+00 0.000000e+00
2.450000e+01 -8.250000e+00 0.000000e+00
2.475000e+01 -8.500000e+00 0.000000e+00
2.400000e+01 -8.250000e+00 0.000000e+00
2.425000e+01 -8.500000e+00 0.000000e+00
2.350000e+01 -8.250000e+00 0.000000e+00
2.375000e+01 -8.500000e+00 0.000000e+00
2.300000e+01 -8.250000e+00 0.000000e+00
2.325000e+01 -8.500000e+00 0.000000e+00
2.250000e+01 -8.250000e+00 0.000000e+00
2.275000e+01 -8.500000e+00 0.000000e+00
2.200000e+01 -8.250000e+00 0.000000e+00
2.225000e+01 -8.500000e+00 0.000000e+00
2.150000e+01 -8.250000e+00 0.000000e+00
2.175000e+01 -8.500000e+00 0.000000e+00
2.100000e+01 -8.250000e+00 0.000000e+00
2.125000e+01 -8.500000e+00 0.000000e+00
2.050000e+01 -8.250000e+00 0.000000e+00
2.075000e+01 -8.500000e+00 0.000000e+00
2.000000e+01 -8.250000e+00 0.000000e+00
2.025000e+01 -8.500000e+00 0.000000e+00
1.950000e+01 -8.250000e+00 0.000000e+00
1.975000e+01 -8.500000e+00 0.000000e+00
1.900000e+01 -8.250000e+00 0.000000e+00
1.925000e+01 -8.500000e+00 0.000000e+00
1.850000e+01 -8.250000e+00 0.000000e+00
1.875000e+01 -8.500000e+00 0.000000e+00
1.800000e+01 -8.250000e+00 0.000000e+00
1.825000e+01 -8.500000e+00 0.000000e+00
1.750000e+01 -8.250000e+00 0.000000e+00
1.775000e+01 -8.500000e+00 0.000000e+00
1.700000e+01 -8.250000e+00 0.000000e+00
1.725000e+01 -8.500000e+00 0.000000e+00
1.650000e+01 -8.250000e+00 0.000000e+00
1.675000e+01 -8.500000e+00 0.000000e+00
1.600000e+01 -8.250000e+00 0.000000e+00
1.625000e+01 -8.500000e+00 0.000000e+00
1.550000e+01 -8.250000e+00 0.000000e+00
1.575000e+01 -8.500000e+00 0.000000e+00
1.500000e+01 -8.250000e+00 0.000000e+00
1.525000e+01 -8.500000e+00 0.000000e+00
2.950000e+01 -8.750000e+00 0.000000e+00
2.975000e+01 -9.000000e+00 0.000000e+00
3.000000e+01 -8.750000e+00 0.000000e+00
2.900000e+01 -8.750000e+00 0.000000e+00
2.925000e+01 -9.000000e+00 0.000000e+00
2.850000e+01 -8.750000e+00 0.000000e+00
2.875000e+01 -9.000000e+00 0.000000e+00
2.800000e+01 -8.750000e+00 0.000000e+00
2.825000e+01 -9.000000e+00 0.000000e+00
2.750000e+01 -8.750000e+00 0.000000e+00
2.775000e+01 -9.000000e+00 0.000000e+00
2.700000e+01 -8.750000e+00 0.000000e+00
2.725000e+01 -9.000000e+00 0.000000e+00
2.650000e+01 -8.750000e+00 0.000000e+00
2.675000e+01 -9.000000e+00 0.000000e+00
2.600000e+01 -8.750000e+00 0.000000e+00
2.625000e+01 -9.000000e+00 0.000000e+00
2.550000e+01 -8.750000e+00 0.000000e+00
2.575000e+01 -9.000000e+00 0.000000e+00
2.500000e+01 -8.750000e+00 0.000000e+00
2.525000e+01 -9.000000e+00 0.000000e+00
2.450000e+01 -8.750000e+00 0.000000e+00
2.475000e+01 -9.000000e+00 0.000000e+00
2.400000e+01 -8.750000e+00 0.000000e+00
2.425000e+01 -9.000000e+00 0.000000e+00
2.350000e+01 -8.750000e+00 0.000000e+00
2.375000e+01 -9.000000e+00 0.000000e+00
2.300000e+01 -8.750000e+00 0.000000e+00
2.325000e+01 -9.000000e+00 0.000000e+00
2.250000e+01 -8.750000e+00 0.000000e+00
2.275000e+01 -9.000000e+00 0.000000e+00
2.200000e+01 -8.750000e+00 0.000000e+00
2.225000e+01 -9.000000e+00 0.000000e+00
2.150000e+01 -8.750000e+00 0.000000e+00
2.175000e+01 -9.000000e+00 0.000000e+00
2.100000e+01 -8.750000e+00 0.000000e+00
2.125000e+01 -9.000000e+00 0.000000e+00
2.050000e+01 -8.750000e+00 0.000000e+00
2.075000e+01 -9.000000e+00 0.000000e+00
2.000000e+01 -8.750000e+00 0.000000e+00
2.025000e+01 -9.000000e+00 0.000000e+00
1.950000e+01 -8.750000e+00 0.000000e+00
1.975000e+01 -9.000000e+00 0.000000e+00
1.900000e+01 -8.750000e+00 0.000000e+00
1.925000e+01 -9.000000e+00 0.000000e+00
1.850000e+01 -8.750000e+00 0.000000e+00
1.875000e+01 -9.000000e+00 0.000000e+00
1.800000e+01 -8.750000e+00 0.000000e+00
1.825000e+01 -9.000000e+00 0.000000e+00
1.750000e+01 -8.750000e+00 0.000000e+00
1.775000e+01 -9.000000e+00 0.000000e+00
1.700000e+01 -8.750000e+00 0.000000e+00
1.725000e+01 -9.000000e+00 0.000000e+00
1.650000e+01 -8.750000e+00 0.000000e+00
1.675000e+01 -9.000000e+00 0.000000e+00
1.600000e+01 -8.750000e+00 0.000000e+00
1.625000e+01 -9.000000e+00 0.000000e+00
1.550000e+01 -8.750000e+00 0.000000e+00
1.575000e+01 -9.000000e+00 0.000000e+00
1.500000e+01 -8.750000e+00 0.000000e+00
1.525000e+01 -9.000000e+00 0.000000e+00
2.950000e+01 -9.250000e+00 0.000000e+00
2.975000e+01 -9.500000e+00 0.000000e+00
3.000000e+01 -9.250000e+00 0.000000e+00
2.900000e+01 -9.250000e+00 0.000000e+00
2.925000e+01 -9.500000e+00 0.000000e+00
2.850000e+01 -9.250000e+00 0.000000e+00
2.875000e+01 -9.500000e+00 0.000000e+00
2.800000e+01 -9.250000e+00 0.000000e+00
2.825000e+01 -9.500000e+00 0.000000e+00
2.750000e+01 -9.250000e+00 0.000000e+00
2.775000e+01 -9.500000e+00 0.000000e+00
2.700000e+01 -9.250000e+00 0.000000e+00
2.725000e+01 -9.500000e+00 0.000000e+00
2.650000e+01 -9.250000e+00 0.000000e+00
2.675000e+01 -9.500000e+00 0.000000e+00
2.600000e+01 -9.250000e+00 0.000000e+00
2.625000e+01 -9.500000e+00 0.000000e+00
2.550000e+01 -9.250000e+00 0.000000e+00
2.575000e+01 -9.500000e+00 0.000000e+00
2.500000e+01 -9.250000e+00 0.000000e+00
2.525000e+01 -9.500000e+00 0.000000e+00
2.450000e+01 -9.250000e+00 0.000000e+00
2.475000e+01 -9.500000e+00 0.000000e+00
2.400000e+01 -9.250000e+00 0.000000e+00
2.425000e+01 -9.500000e+00 0.000000e+00
2.350000e+01 -9.250000e+00 0.000000e+00
2.375000e+01 -9.500000e+00 0.000000e+00
2.300000e+01 -9.250000e+00 0.000000e+00
2.325000e+01 -9.500000e+00 0.000000e+00
2.250000e+01 -9.250000e+00 0.000000e+00
2.275000e+01 -9.500000e+00 0.000000e+00
2.200000e+01 -9.250000e+00 0.000000e+00
2.225000e+01 -9.500000e+00 0.000000e+00
2.150000e+01 -9.250000e+00 0.000000e+00
2.175000e+01 -9.500000e+00 0.000000e+00
2.100000e+01 -9.250000e+00 0.000000e+00
2.125000e+01 -9.500000e+00 0.000000e+00
2.050000e+01 -9.250000e+00 0.000000e+00
2.075000e+01 -9.500000e+00 0.000000e+00
2.000000e+01 -9.250000e+00 0.000000e+00
2.025000e+01 -9.500000e+00 0.000000e+00
1.950000e+01 -9.250000e+00 0.000000e+00
1.975000e+01 -9.500000e+00 0.000000e+00
1.900000e+01 -9.250000e+00 0.000000e+00
1.925000e+01 -9.500000e+00 0.000000e+00
1.850000e+01 -9.250000e+00 0.000000e+00
1.875000e+01 -9.500000e+00 0.000000e+00
1.800000e+01 -9.250000e+00 0.000000e+00
1.825000e+01 -9.500000e+00 0.000000e+00
1.750000e+01 -9.250000e+00 0.000000e+00
1.775000e+01 -9.500000e+00 0.000000e+00
1.700000e+01 -9.250000e+00 0.000000e+00
1.725000e+01 -9.500000e+00 0.000000e+00
1.650000e+01 -9.250000e+00 0.000000e+00
1.675000e+01 -9.500000e+00 0.000000e+00
1.600000e+01 -9.250000e+00 0.000000e+00
1.625000e+01 -9.500000e+00 0.000000e+00
1.550000e+01 -9.250000e+00 0.000000e+00
1.575000e+01 -9.500000e+00 0.000000e+00
1.500000e+01 -9.250000e+00 0.000000e+00
1.525000e+01 -9.500000e+00 0.000000e+00
2.950000e+01 -9.750000e+00 0.000000e+00
2.975000e+01 -1.000000e+01 0.000000e+00
3.000000e+01 -9.750000e+00 0.000000e+00
2.900000e+01 -9.750000e+00 0.000000e+00
2.925000e+01 -1.000000e+01 0.000000e+00
2.850000e+01 -9.750000e+00 0.000000e+00
2.875000e+01 -1.000000e+01 0.000000e+00
2.800000e+01 -9.750000e+00 0.000000e+00
2.825000e+01 -1.000000e+01 0.000000e+00
2.750000e+01 -9.750000e+00 0.000000e+00
2.775000e+01 -1.000000e+01 0.000000e+00
2.700000e+01 -9.750000e+00 0.000000e+00
2.725000e+01 -1.000000e+01 0.000000e+00
2.650000e+01 -9.750000e+00 0.000000e+00
2.675000e+01 -1.000000e+01 0.000000e+00
2.600000e+01 -9.750000e+00 0.000000e+00
2.625000e+01 -1.000000e+01 0.000000e+00
2.550000e+01 -9.750000e+00 0.000000e+00
2.575000e+01 -1.000000e+01 0.000000e+00
2.500000e+01 -9.750000e+00 0.000000e+00
2.525000e+01 -1.000000e+01 0.000000e+00
2.450000e+01 -9.750000e+00 0.000000e+00
2.475000e+01 -1.000000e+01 0.000000e+00
2.400000e+01 -9.750000e+00 0.000000e+00
2.425000e+01 -1.000000e+01 0.000000e+00
2.350000e+01 -9.750000e+00 0.000000e+00
2.375000e+01 -1.000000e+01 0.000000e+00
2.300000e+01 -9.750000e+00 0.000000e+00
2.325000e+01 -1.000000e+01 0.000000e+00
2.250000e+01 -9.750000e+00 0.000000e+00
2.275000e+01 -1.000000e+01 0.000000e+00
2.200000e+01 -9.750000e+00 0.000000e+00
2.225000e+01 -1.000000e+01 0.000000e+00
2.150000e+01 -9.750000e+00 0.000000e+00
2.175000e+01 -1.000000e+01 0.000000e+00
2.100000e+01 -9.750000e+00 0.000000e+00
2.125000e+01 -1.000000e+01 0.000000e+00
2.050000e+01 -9.750000e+00 0.000000e+00
2.075000e+01 -1.000000e+01 0.000000e+00
2.000000e+01 -9.750000e+00 0.000000e+00
2.025000e+01 -1.000000e+01 0.000000e+00
1.950000e+01 -9.750000e+00 0.000000e+00
1.975000e+01 -1.000000e+01 0.000000e+00
1.900000e+01 -9.750000e+00 0.000000e+00
1.925000e+01 -1.000000e+01 0.000000e+00
1.850000e+01 -9.750000e+00 0.000000e+00
1.875000e+01 -1.000000e+01 0.000000e+00
1.800000e+01 -9.750000e+00 0.000000e+00
1.825000e+01 -1.000000e+01 0.000000e+00
1.750000e+01 -9.750000e+00 0.000000e+00
1.775000e+01 -1.000000e+01 0.000000e+00
1.700000e+01 -9.750000e+00 0.000000e+00
1.725000e+01 -1.000000e+01 0.000000e+00
1.650000e+01 -9.750000e+00 0.000000e+00
1.675000e+01 -1.000000e+01 0.000000e+00
1.600000e+01 -9.750000e+00 0.000000e+00
1.625000e+01 -1.000000e+01 0.000000e+00
1.550000e+01 -9.750000e+00 0.000000e+00
1.575000e+01 -1.000000e+01 0.000000e+00
1.500000e+01 -9.750000e+00 0.000000e+00
1.525000e+01 -1.000000e+01 0.000000e+00
2.950000e+01 -1.025000e+01 0.000000e+00
2.975000e+01 -1.050000e+01 0.000000e+00
3.000000e+01 -1.025000e+01 0.000000e+00
2.900000e+01 -1.025000e+01 0.000000e+00
2.925000e+01 -1.050000e+01 0.000000e+00
2.850000e+01 -1.025000e+01 0.000000e+00
2.875000e+01 -1.050000e+01 0.000000e+00
2.800000e+01 -1.025000e+01 0.000000e+00
2.825000e+01 -1.050000e+01 0.000000e+00
2.750000e+01 -1.025000e+01 0.000000e+00
2.775000e+01 -1.050000e+01 0.000000e+00
2.700000e+01 -1.025000e+01 0.000000e+00
2.725000e+01 -1.050000e+01 0.000000e+00
2.650000e+01 -1.025000e+01 0.000000e+00
2.675000e+01 -1.050000e+01 0.000000e+00
2.600000e+01 -1.025000e+01 0.000000e+00
2.625000e+01 -1.050000e+01 0.000000e+00
2.550000e+01 -1.025000e+01 0.000000e+00
2.575000e+01 -1.050000e+01 0.000000e+00
2.500000e+01 -1.025000e+01 0.000000e+00
2.525000e+01 -1.050000e+01 0.000000e+00
2.450000e+01 -1.025000e+01 0.000000e+00
2.475000e+01 -1.050000e+01 0.000000e+00
2.400000e+01 -1.025000e+01 0.000000e+00
2.425000e+01 -1.050000e+01 0.000000e+00
2.350000e+01 -1.025000e+01 0.000000e+00
2.375000e+01 -1.050000e+01 0.000000e+00
2.300000e+01 -1.025000e+01 0.000000e+00
2.325000e+01 -1.050000e+01 0.000000e+00
2.250000e+01 -1.025000e+01 0.000000e+00
2.275000e+01 -1.050000e+01 0.000000e+00
2.200000e+01 -1.025000e+01 0.000000e+00
2.225000e+01 -1.050000e+01 0.000000e+00
2.150000e+01 -1.025000e+01 0.000000e+00
2.175000e+01 -1.050000e+01 0.000000e+00
2.100000e+01 -1.025000e+01 0.000000e+00
2.125000e+01 -1.050000e+01 0.000000e+00
2.050000e+01 -1.025000e+01 0.000000e+00
2.075000e+01 -1.050000e+01 0.000000e+00
2.000000e+01 -1.025000e+01 0.000000e+00
2.025000e+01 -1.050000e+01 0.000000e+00
1.950000e+01 -1.025000e+01 0.000000e+00
1.975000e+01 -1.050000e+01 0.000000e+00
1.900000e+01 -1.025000e+01 0.000000e+00
1.925000e+01 -1.050000e+01 0.000000e+00
1.850000e+01 -1.025000e+01 0.000000e+00
1.875000e+01 -1.050000e+01 0.000000e+00
1.800000e+01 -1.025000e+01 0.000000e+00
1.825000e+01 -1.050000e+01 0.000000e+00
1.750000e+01 -1.025000e+01 0.000000e+00
1.775000e+01 -1.050000e+01 0.000000e+00
1.700000e+01 -1.025000e+01 0.000000e+00
1.725000e+01 -1.050000e+01 0.000000e+00
1.650000e+01 -1.025000e+01 0.000000e+00
1.675000e+01 -1.050000e+01 0.000000e+00
1.600000e+01 -1.025000e+01 0.000000e+00
1.625000e+01 -1.050000e+01 0.000000e+00
1.550000e+01 -1.025000e+01 0.000000e+00
1.575000e+01 -1.050000e+01 0.000000e+00
1.500000e+01 -1.025000e+01 0.000000e+00
1.525000e+01 -1.050000e+01 0.000000e+00
2.950000e+01 -1.075000e+01 0.000000e+00
2.975000e+01 -1.100000e+01 0.000000e+00
3.000000e+01 -1.075000e+01 0.000000e+00
2.900000e+01 -1.075000e+01 0.000000e+00
2.925000e+01 -1.100000e+01 0.000000e+00
2.850000e+01 -1.075000e+01 0.000000e+00
2.875000e+01 -1.100000e+01 0.000000e+00
2.800000e+01 -1.075000e+01 0.000000e+00
2.825000e+01 -1.100000e+01 0.000000e+00
2.750000e+01 -1.075000e+01 0.000000e+00
2.775000e+01 -1.100000e+01 0.000000e+00
2.700000e+01 -1.075000e+01 0.000000e+00
2.725000e+01 -1.100000e+01 0.000000e+00
2.650000e+01 -1.075000e+01 0.000000e+00
2.675000e+01 -1.100000e+01 0.000000e+00
2.600000e+01 -1.075000e+01 0.000000e+00
2.625000e+01 -1.100000e+01 0.000000e+00
2.550000e+01 -1.075000e+01 0.000000e+00
2.575000e+01 -1.100000e+01 0.000000e+00
2.500000e+01 -1.075000e+01 0.000000e+00
2.525000e+01 -1.100000e+01 0.000000e+00
2.450000e+01 -1.075000e+01 0.000000e+00
2.475000e+01 -1.100000e+01 0.000000e+00
2.400000e+01 -1.075000e+01 0.000000e+00
2.425000e+01 -1.100000e+01 0.000000e+00
2.350000e+01 -1.075000e+01 0.000000e+00
2.375000e+01 -1.100000e+01 0.000000e+00
2.300000e+01 -1.075000e+01 0.000000e+00
2.325000e+01 -1.100000e+01 0.000000e+00
2.250000e+01 -1.075000e+01 0.000000e+00
2.275000e+01 -1.100000e+01 0.000000e+00
2.200000e+01 -1.075000e+01 0.000000e+00
2.225000e+01 -1.100000e+01 0.000000e+00
2.150000e+01 -1.075000e+01 0.000000e+00
2.175000e+01 -1.100000e+01 0.000000e+00
2.100000e+01 -1.075000e+01 0.000000e+00
2.125000e+01 -1.100000e+01 0.000000e+00
2.050000e+01 -1.075000e+01 0.000000e+00
2.075000e+01 -1.100000e+01 0.000000e+00
2.000000e+01 -1.075000e+01 0.000000e+00
2.025000e+01 -1.100000e+01 0.000000e+00
1.950000e+01 -1.075000e+01 0.000000e+00
1.975000e+01 -1.100000e+01 0.000000e+00
1.900000e+01 -1.075000e+01 0.000000e+00
1.925000e+01 -1.100000e+01 0.000000e+00
1.850000e+01 -1.075000e+01 0.000000e+00
1.875000e+01 -1.100000e+01 0.000000e+00
1.800000e+01 -1.075000e+01 0.000000e+00
1.825000e+01 -1.100000e+01 0.000000e+00
1.750000e+01 -1.075000e+01 0.000000e+00
1.775000e+01 -1.100000e+01 0.000000e+00
1.700000e+01 -1.075000e+01 0.000000e+00
1.725000e+01 -1.100000e+01 0.000000e+00
1.650000e+01 -1.075000e+01 0.000000e+00
1.675000e+01 -1.100000e+01 0.000000e+00
1.600000e+01 -1.075000e+01 0.000000e+00
1.625000e+01 -1.100000e+01 0.000000e+00
1.550000e+01 -1.075000e+01 0.000000e+00
1.575000e+01 -1.100000e+01 0.000000e+00
1.500000e+01 -1.075000e+01 0.000000e+00
1.525000e+01 -1.100000e+01 0.000000e+00
2.950000e+01 -1.125000e+01 0.000000e+00
2.975000e+01 -1.150000e+01 0.000000e+00
3.000000e+01 -1.125000e+01 0.000000e+00
2.900000e+01 -1.125000e+01 0.000000e+00
2.925000e+01 -1.150000e+01 0.000000e+00
2.850000e+01 -1.125000e+01 0.000000e+00
2.875000e+01 -1.150000e+01 0.000000e+00
2.800000e+01 -1.125000e+01 0.000000e+00
2.825000e+01 -1.150000e+01 0.000000e+00
2.750000e+01 -1.125000e+01 0.000000e+00
2.775000e+01 -1.150000e+01 0.000000e+00
2.700000e+01 -1.125000e+01 0.000000e+00
2.725000e+01 -1.150000e+01 0.000000e+00
2.650000e+01 -1.125000e+01 0.000000e+00
2.675000e+01 -1.150000e+01 0.000000e+00
2.600000e+01 -1.125000e+01 0.000000e+00
2.625000e+01 -1.150000e+01 0.000000e+00
2.550000e+01 -1.125000e+01 0.000000e+00
2.575000e+01 -1.150000e+01 0.000000e+00
2.500000e+01 -1.125000e+01 0.000000e+00
2.525000e+01 -1.150000e+01 0.000000e+00
2.450000e+01 -1.125000e+01 0.000000e+00
2.475000e+01 -1.150000e+01 0.000000e+00
2.400000e+01 -1.125000e+01 0.000000e+00
2.425000e+01 -1.150000e+01 0.000000e+00
2.350000e+01 -1.125000e+01 0.000000e+00
2.375000e+01 -1.150000e+01 0.000000e+00
2.300000e+01 -1.125000e+01 0.000000e+00
2.325000e+01 -1.150000e+01 0.000000e+00
2.250000e+01 -1.125000e+01 0.000000e+00
2.275000e+01 -1.150000e+01 0.000000e+00
2.200000e+01 -1.125000e+01 0.000000e+00
2.225000e+01 -1.150000e+01 0.000000e+00
2.150000e+01 -1.125000e+01 0.000000e+00
2.175000e+01 -1.150000e+01 0.000000e+00
2.100000e+01 -1.125000e+01 0.000000e+00
2.125000e+01 -1.150000e+01 0.000000e+00
2.050000e+01 -1.125000e+01 0.000000e+00
2.075000e+01 -1.150000e+01 0.000000e+00
2.000000e+01 -1.125000e+01 0.000000e+00
2.025000e+01 -1.150000e+01 0.000000e+00
1.950000e+01 -1.125000e+01 0.000000e+00
1.975000e+01 -1.150000e+01 0.000000e+00
1.900000e+01 -1.125000e+01 0.000000e+00
1.925000e+01 -1.150000e+01 0.000000e+00
1.850000e+01 -1.125000e+01 0.000000e+00
1.875000e+01 -1.150000e+01 0.000000e+00
1.800000e+01 -1.125000e+01 0.000000e+00
1.825000e+01 -1.150000e+01 0.000000e+00
1.750000e+01 -1.125000e+01 0.000000e+00
1.775000e+01 -1.150000e+01 0.000000e+00
1.700000e+01 -1.125000e+01 0.000000e+00
1.725000e+01 -1.150000e+01 0.000000e+00
1.650000e+01 -1.125000e+01 0.000000e+00
1.675000e+01 -1.150000e+01 0.000000e+00
1.600000e+01 -1.125000e+01 0.000000e+00
1.625000e+01 -1.150000e+01 0.000000e+00
1.550000e+01 -1.125000e+01 0.000000e+00
1.575000e+01 -1.150000e+01 0.000000e+00
1.500000e+01 -1.125000e+01 0.000000e+00
1.525000e+01 -1.150000e+01 0.000000e+00
2.950000e+01 -1.175000e+01 0.000000e+00
2.975000e+01 -1.200000e+01 0.000000e+00
3.000000e+01 -1.175000e+01 0.000000e+00
2.900000e+01 -1.175000e+01 0.000000e+00
2.925000e+01 -1.200000e+01 0.000000e+00
2.850000e+01 -1.175000e+01 0.000000e+00
2.875000e+01 -1.200000e+01 0.000000e+00
2.800000e+01 -1.175000e+01 0.000000e+00
2.825000e+01 -1.200000e+01 0.000000e+00
2.750000e+01 -1.175000e+01 0.000000e+00
2.775000e+01 -1.200000e+01 0.000000e+00
2.700000e+01 -1.175000e+01 0.000000e+00
2.725000e+01 -1.200000e+01 0.000000e+00
2.650000e+01 -1.175000e+01 0.000000e+00
2.675000e+01 -1.200000e+01 0.000000e+00
2.600000e+01 -1.175000e+01 0.000000e+00
2.625000e+01 -1.200000e+01 0.000000e+00
2.550000e+01 -1.175000e+01 0.000000e+00
2.575000e+01 -1.200000e+01 0.000000e+00
2.500000e+01 -1.175000e+01 0.000000e+00
2.525000e+01 -1.200000e+01 0.000000e+00
2.450000e+01 -1.175000e+01 0.000000e+00
2.475000e+01 -1.200000e+01 0.000000e+00
2.400000e+01 -1.175000e+01 0.000000e+00
2.425000e+01 -1.200000e+01 0.000000e+00
2.350000e+01 -1.175000e+01 0.000000e+00
2.375000e+01 -1.200000e+01 0.000000e+00
2.300000e+01 -1.175000e+01 0.000000e+00
2.325000e+01 -1.200000e+01 0.000000e+00
2.250000e+01 -1.175000e+01 0.000000e+00
2.275000e+01 -1.200000e+01 0.000000e+00
2.200000e+01 -1.175000e+01 0.000000e+00
2.225000e+01 -1.200000e+01 0.000000e+00
2.150000e+01 -1.175000e+01 0.000000e+00
2.175000e+01 -1.200000e+01 0.000000e+00
2.100000e+01 -1.175000e+01 0.000000e+00
2.125000e+01 -1.200000e+01 0.000000e+00
2.050000e+01 -1.175000e+01 0.000000e+00
2.075000e+01 -1.200000e+01 0.000000e+00
2.000000e+01 -1.175000e+01 0.000000e+00
2.025000e+01 -1.200000e+01 0.000000e+00
1.950000e+01 -1.175000e+01 0.000000e+00
1.975000e+01 -1.200000e+01 0.000000e+00
1.900000e+01 -1.175000e+01 0.000000e+00
1.925000e+01 -1.200000e+01 0.000000e+00
1.850000e+01 -1.175000e+01 0.000000e+00
1.875000e+01 -1.200000e+01 0.000000e+00
1.800000e+01 -1.175000e+01 0.000000e+00
1.825000e+01 -1.200000e+01 0.000000e+00
1.750000e+01 -1.175000e+01 0.000000e+00
1.775000e+01 -1.200000e+01 0.000000e+00
1.700000e+01 -1.175000e+01 0.000000e+00
1.725000e+01 -1.200000e+01 0.000000e+00
1.650000e+01 -1.175000e+01 0.000000e+00
1.675000e+01 -1.200000e+01 0.000000e+00
1.600000e+01 -1.175000e+01 0.000000e+00
1.625000e+01 -1.200000e+01 0.000000e+00
1.550000e+01 -1.175000e+01 0.000000e+00
1.575000e+01 -1.200000e+01 0.000000e+00
1.500000e+01 -1.175000e+01 0.000000e+00
1.525000e+01 -1.200000e+01 0.000000e+00
2.950000e+01 -1.225000e+01 0.000000e+00
2.975000e+01 -1.250000e+01 0.000000e+00
3.000000e+01 -1.225000e+01 0.000000e+00
2.900000e+01 -1.225000e+01 0.000000e+00
2.925000e+01 -1.250000e+01 0.000000e+00
2.850000e+01 -1.225000e+01 0.000000e+00
2.875000e+01 -1.250000e+01 0.000000e+00
2.800000e+01 -1.225000e+01 0.000000e+00
2.825000e+01 -1.250000e+01 0.000000e+00
2.750000e+01 -1.225000e+01 0.000000e+00
2.775000e+01 -1.250000e+01 0.000000e+00
2.700000e+01 -1.225000e+01 0.000000e+00
2.725000e+01 -1.250000e+01 0.000000e+00
2.650000e+01 -1.225000e+01 0.000000e+00
2.675000e+01 -1.250000e+01 0.000000e+00
2.600000e+01 -1.225000e+01 0.000000e+00
2.625000e+01 -1.250000e+01 0.000000e+00
2.550000e+01 -1.225000e+01 0.000000e+00
2.575000e+01 -1.250000e+01 0.000000e+00
2.500000e+01 -1.225000e+01 0.000000e+00
2.525000e+01 -1.250000e+01 0.000000e+00
2.450000e+01 -1.225000e+01 0.000000e+00
2.475000e+01 -1.250000e+01 0.000000e+00
2.400000e+01 -1.225000e+01 0.000000e+00
2.425000e+01 -1.250000e+01 0.000000e+00
2.350000e+01 -1.225000e+01 0.000000e+00
2.375000e+01 -1.250000e+01 0.000000e+00
2.300000e+01 -1.225000e+01 0.000000e+00
2.325000e+01 -1.250000e+01 0.000000e+00
2.250000e+01 -1.225000e+01 0.000000e+00
2.275000e+01 -1.250000e+01 0.000000e+00
2.200000e+01 -1.225000e+01 0.000000e+00
2.225000e+01 -1.250000e+01 0.000000e+00
2.150000e+01 -1.225000e+01 0.000000e+00
2.175000e+01 -1.250000e+01 0.000000e+00
2.100000e+01 -1.225000e+01 0.000000e+00
2.125000e+01 -1.250000e+01 0.000000e+00
2.050000e+01 -1.225000e+01 0.000000e+00
2.075000e+01 -1.250000e+01 0.000000e+00
2.000000e+01 -1.225000e+01 0.000000e+00
2.025000e+01 -1.250000e+01 0.000000e+00
1.950000e+01 -1.225000e+01 0.000000e+00
1.975000e+01 -1.250000e+01 0.000000e+00
1.900000e+01 -1.225000e+01 0.000000e+00
1.925000e+01 -1.250000e+01 0.000000e+00
1.850000e+01 -1.225000e+01 0.000000e+00
1.875000e+01 -1.250000e+01 0.000000e+00
1.800000e+01 -1.225000e+01 0.000000e+00
1.825000e+01 -1.250000e+01 0.000000e+00
1.750000e+01 -1.225000e+01 0.000000e+00
1.775000e+01 -1.250000e+01 0.000000e+00
1.700000e+01 -1.225000e+01 0.000000e+00
1.725000e+01 -1.250000e+01 0.000000e+00
1.650000e+01 -1.225000e+01 0.000000e+00
1.675000e+01 -1.250000e+01 0.000000e+00
1.600000e+01 -1.225000e+01 0.000000e+00
1.625000e+01 -1.250000e+01 0.000000e+00
1.550000e+01 -1.225000e+01 0.000000e+00
1.575000e+01 -1.250000e+01 0.000000e+00
1.500000e+01 -1.225000e+01 0.000000e+00
1.525000e+01 -1.250000e+01 0.000000e+00
2.950000e+01 -1.275000e+01 0.000000e+00
2.975000e+01 -1.300000e+01 0.000000e+00
3.000000e+01 -1.275000e+01 0.000000e+00
2.900000e+01 -1.275000e+01 0.000000e+00
2.925000e+01 -1.300000e+01 0.000000e+00
2.850000e+01 -1.275000e+01 0.000000e+00
2.875000e+01 -1.300000e+01 0.000000e+00
2.800000e+01 -1.275000e+01 0.000000e+00
2.825000e+01 -1.300000e+01 0.000000e+00
2.750000e+01 -1.275000e+01 0.000000e+00
2.775000e+01 -1.300000e+01 0.000000e+00
2.700000e+01 -1.275000e+01 0.000000e+00
2.725000e+01 -1.300000e+01 0.000000e+00
2.650000e+01 -1.275000e+01 0.000000e+00
2.675000e+01 -1.300000e+01 0.000000e+00
2.600000e+01 -1.275000e+01 0.000000e+00
2.625000e+01 -1.300000e+01 0.000000e+00
2.550000e+01 -1.275000e+01 0.000000e+00
2.575000e+01 -1.300000e+01 0.000000e+00
2.500000e+01 -1.275000e+01 0.000000e+00
2.525000e+01 -1.300000e+01 0.000000e+00
2.450000e+01 -1.275000e+01 0.000000e+00
2.475000e+01 -1.300000e+01 0.000000e+00
2.400000e+01 -1.275000e+01 0.000000e+00
2.425000e+01 -1.300000e+01 0.000000e+00
2.350000e+01 -1.275000e+01 0.000000e+00
2.375000e+01 -1.300000e+01 0.000000e+00
2.300000e+01 -1.275000e+01 0.000000e+00
2.325000e+01 -1.300000e+01 0.000000e+00
2.250000e+01 -1.275000e+01 0.000000e+00
2.275000e+01 -1.300000e+01 0.000000e+00
2.200000e+01 -1.275000e+01 0.000000e+00
2.225000e+01 -1.300000e+01 0.000000e+00
2.150000e+01 -1.275000e+01 0.000000e+00
2.175000e+01 -1.300000e+01 0.000000e+00
2.100000e+01 -1.275000e+01 0.000000e+00
2.125000e+01 -1.300000e+01 0.000000e+00
2.050000e+01 -1.275000e+01 0.000000e+00
2.075000e+01 -1.300000e+01 0.000000e+00
2.000000e+01 -1.275000e+01 0.000000e+00
2.025000e+01 -1.300000e+01 0.000000e+00
1.950000e+01 -1.275000e+01 0.000000e+00
1.975000e+01 -1.300000e+01 0.000000e+00
1.900000e+01 -1.275000e+01 0.000000e+00
1.925000e+01 -1.300000e+01 0.000000e+00
1.850000e+01 -1.275000e+01 0.000000e+00
1.875000e+01 -1.300000e+01 0.000000e+00
1.800000e+01 -1.275000e+01 0.000000e+00
1.825000e+01 -1.300000e+01 0.000000e+00
1.750000e+01 -1.275000e+01 0.000000e+00
1.775000e+01 -1.300000e+01 0.000000e+00
1.700000e+01 -1.275000e+01 0.000000e+00
1.725000e+01 -1.300000e+01 0.000000e+00
1.650000e+01 -1.275000e+01 0.000000e+00
1.675000e+01 -1.300000e+01 0.000000e+00
1.600000e+01 -1.275000e+01 0.000000e+00
1.625000e+01 -1.300000e+01 0.000000e+00
1.550000e+01 -1.275000e+01 0.000000e+00
1.575000e+01 -1.300000e+01 0.000000e+00
1.500000e+01 -1.275000e+01 0.000000e+00
1.525000e+01 -1.300000e+01 0.000000e+00
2.950000e+01 -1.325000e+01 0.000000e+00
2.975000e+01 -1.350000e+01 0.000000e+00
3.000000e+01 -1.325000e+01 0.000000e+00
2.900000e+01 -1.325000e+01 0.000000e+00
2.925000e+01 -1.350000e+01 0.000000e+00
2.850000e+01 -1.325000e+01 0.000000e+00
2.875000e+01 -1.350000e+01 0.000000e+00
2.800000e+01 -1.325000e+01 0.000000e+00
2.825000e+01 -1.350000e+01 0.000000e+00
2.750000e+01 -1.325000e+01 0.000000e+00
2.775000e+01 -1.350000e+01 0.000000e+00
2.700000e+01 -1.325000e+01 0.000000e+00
2.725000e+01 -1.350000e+01 0.000000e+00
2.650000e+01 -1.325000e+01 0.000000e+00
2.675000e+01 -1.350000e+01 0.000000e+00
2.600000e+01 -1.325000e+01 0.000000e+00
2.625000e+01 -1.350000e+01 0.000000e+00
2.550000e+01 -1.325000e+01 0.000000e+00
2.575000e+01 -1.350000e+01 0.000000e+00
2.500000e+01 -1.325000e+01 0.000000e+00
2.525000e+01 -1.350000e+01 0.000000e+00
2.450000e+01 -1.325000e+01 0.000000e+00
2.475000e+01 -1.350000e+01 0.000000e+00
2.400000e+01 -1.325000e+01 0.000000e+00
2.425000e+01 -1.350000e+01 0.000000e+00
2.350000e+01 -1.325000e+01 0.000000e+00
2.375000e+01 -1.350000e+01 0.000000e+00
2.300000e+01 -1.325000e+01 0.000000e+00
2.325000e+01 -1.350000e+01 0.000000e+00
2.250000e+01 -1.325000e+01 0.000000e+00
2.275000e+01 -1.350000e+01 0.000000e+00
2.200000e+01 -1.325000e+01 0.000000e+00
2.225000e+01 -1.350000e+01 0.000000e+00
2.150000e+01 -1.325000e+01 0.000000e+00
2.175000e+01 -1.350000e+01 0.000000e+00
2.100000e+01 -1.325000e+01 0.000000e+00
2.125000e+01 -1.350000e+01 0.000000e+00
2.050000e+01 -1.325000e+01 0.000000e+00
2.075000e+01 -1.350000e+01 0.000000e+00
2.000000e+01 -1.325000e+01 0.000000e+00
2.025000e+01 -1.350000e+01 0.000000e+00
1.950000e+01 -1.325000e+01 0.000000e+00
1.975000e+01 -1.350000e+01 0.000000e+00
1.900000e+01 -1.325000e+01 0.000000e+00
1.925000e+01 -1.350000e+01 0.000000e+00
1.850000e+01 -1.325000e+01 0.000000e+00
1.875000e+01 -1.350000e+01 0.000000e+00
1.800000e+01 -1.325000e+01 0.000000e+00
1.825000e+01 -1.350000e+01 0.000000e+00
1.750000e+01 -1.325000e+01 0.000000e+00
1.775000e+01 -1.350000e+01 0.000000e+00
1.700000e+01 -1.325000e+01 0.000000e+00
1.725000e+01 -1.350000e+01 0.000000e+00
1.650000e+01 -1.325000e+01 0.000000e+00
1.675000e+01 -1.350000e+01 0.000000e+00
1.600000e+01 -1.325000e+01 0.000000e+00
1.625000e+01 -1.350000e+01 0.000000e+00
1.550000e+01 -1.325000e+01 0.000000e+00
1.575000e+01 -1.350000e+01 0.000000e+00
1.500000e+01 -1.325000e+01 0.000000e+00
1.525000e+01 -1.350000e+01 0.000000e+00
2.950000e+01 -1.375000e+01 0.000000e+00
2.975000e+01 -1.400000e+01 0.000000e+00
3.000000e+01 -1.375000e+01 0.000000e+00
2.900000e+01 -1.375000e+01 0.000000e+00
2.925000e+01 -1.400000e+01 0.000000e+00
2.850000e+01 -1.375000e+01 0.000000e+00
2.875000e+01 -1.400000e+01 0.000000e+00
2.800000e+01 -1.375000e+01 0.000000e+00
2.825000e+01 -1.400000e+01 0.000000e+00
2.750000e+01 -1.375000e+01 0.000000e+00
2.775000e+01 -1.400000e+01 0.000000e+00
2.700000e+01 -1.375000e+01 0.000000e+00
2.725000e+01 -1.400000e+01 0.000000e+00
2.650000e+01 -1.375000e+01 0.000000e+00
2.675000e+01 -1.400000e+01 0.000000e+00
2.600000e+01 -1.375000e+01 0.000000e+00
2.625000e+01 -1.400000e+01 0.000000e+00
2.550000e+01 -1.375000e+01 0.000000e+00
2.575000e+01 -1.400000e+01 0.000000e+00
2.500000e+01 -1.375000e+01 0.000000e+00
2.525000e+01 -1.400000e+01 0.000000e+00
2.450000e+01 -1.375000e+01 0.000000e+00
2.475000e+01 -1.400000e+01 0.000000e+00
2.400000e+01 -1.375000e+01 0.000000e+00
2.425000e+01 -1.400000e+01 0.000000e+00
2.350000e+01 -1.375000e+01 0.000000e+00
2.375000e+01 -1.400000e+01 0.000000e+00
2.300000e+01 -1.375000e+01 0.000000e+00
2.325000e+01 -1.400000e+01 0.000000e+00
2.250000e+01 -1.375000e+01 0.000000e+00
2.275000e+01 -1.400000e+01 0.000000e+00
2.200000e+01 -1.375000e+01 0.000000e+00
2.225000e+01 -1.400000e+01 0.000000e+00
2.150000e+01 -1.375000e+01 0.000000e+00
2.175000e+01 -1.400000e+01 0.000000e+00
2.100000e+01 -1.375000e+01 0.000000e+00
2.125000e+01 -1.400000e+01 0.000000e+00
2.050000e+01 -1.375000e+01 0.000000e+00
2.075000e+01 -1.400000e+01 0.000000e+00
2.000000e+01 -1.375000e+01 0.000000e+00
2.025000e+01 -1.400000e+01 0.000000e+00
1.950000e+01 -1.375000e+01 0.000000e+00
1.975000e+01 -1.400000e+01 0.000000e+00
1.900000e+01 -1.375000e+01 0.000000e+00
1.925000e+01 -1.400000e+01 0.000000e+00
1.850000e+01 -1.375000e+01 0.000000e+00
1.875000e+01 -1.400000e+01 0.000000e+00
1.800000e+01 -1.375000e+01 0.000000e+00
1.825000e+01 -1.400000e+01 0.000000e+00
1.750000e+01 -1.375000e+01 0.000000e+00
1.775000e+01 -1.400000e+01 0.000000e+00
1.700000e+01 -1.375000e+01 0.000000e+00
1.725000e+01 -1.400000e+01 0.000000e+00
1.650000e+01 -1.375000e+01 0.000000e+00
1.675000e+01 -1.400000e+01 0.000000e+00
1.600000e+01 -1.375000e+01 0.000000e+00
1.625000e+01 -1.400000e+01 0.000000e+00
1.550000e+01 -1.375000e+01 0.000000e+00
1.575000e+01 -1.400000e+01 0.000000e+00
1.500000e+01 -1.375000e+01 0.000000e+00
1.525000e+01 -1.400000e+01 0.000000e+00
2.950000e+01 -1.425000e+01 0.000000e+00
2.975000e+01 -1.450000e+01 0.000000e+00
3.000000e+01 -1.425000e+01 0.000000e+00
2.900000e+01 -1.425000e+01 0.000000e+00
2.925000e+01 -1.450000e+01 0.000000e+00
2.850000e+01 -1.425000e+01 0.000000e+00
2.875000e+01 -1.450000e+01 0.000000e+00
2.800000e+01 -1.425000e+01 0.000000e+00
2.825000e+01 -1.450000e+01 0.000000e+00
2.750000e+01 -1.425000e+01 0.000000e+00
2.775000e+01 -1.450000e+01 0.000000e+00
2.700000e+01 -1.425000e+01 0.000000e+00
2.725000e+01 -1.450000e+01 0.000000e+00
2.650000e+01 -1.425000e+01 0.000000e+00
2.675000e+01 -1.450000e+01 0.000000e+00
2.600000e+01 -1.425000e+01 0.000000e+00
2.625000e+01 -1.450000e+01 0.000000e+00
2.550000e+01 -1.425000e+01 0.000000e+00
2.575000e+01 -1.450000e+01 0.000000e+00
2.500000e+01 -1.425000e+01 0.000000e+00
2.525000e+01 -1.450000e+01 0.000000e+00
2.450000e+01 -1.425000e+01 0.000000e+00
2.475000e+01 -1.450000e+01 0.000000e+00
2.400000e+01 -1.425000e+01 0.000000e+00
2.425000e+01 -1.450000e+01 0.000000e+00
2.350000e+01 -1.425000e+01 0.000000e+00
2.375000e+01 -1.450000e+01 0.000000e+00
2.300000e+01 -1.425000e+01 0.000000e+00
2.325000e+01 -1.450000e+01 0.000000e+00
2.250000e+01 -1.425000e+01 0.000000e+00
2.275000e+01 -1.450000e+01 0.000000e+00
2.200000e+01 -1.425000e+01 0.000000e+00
2.225000e+01 -1.450000e+01 0.000000e+00
2.150000e+01 -1.425000e+01 0.000000e+00
2.175000e+01 -1.450000e+01 0.000000e+00
2.100000e+01 -1.425000e+01 0.000000e+00
2.125000e+01 -1.450000e+01 0.000000e+00
2.050000e+01 -1.425000e+01 0.000000e+00
2.075000e+01 -1.450000e+01 0.000000e+00
2.000000e+01 -1.425000e+01 0.000000e+00
2.025000e+01 -1.450000e+01 0.000000e+00
1.950000e+01 -1.425000e+01 0.000000e+00
1.975000e+01 -1.450000e+01 0.000000e+00
1.900000e+01 -1.425000e+01 0.000000e+00
1.925000e+01 -1.450000e+01 0.000000e+00
1.850000e+01 -1.425000e+01 0.000000e+00
1.875000e+01 -1.450000e+01 0.000000e+00
1.800000e+01 -1.425000e+01 0.000000e+00
1.825000e+01 -1.450000e+01 0.000000e+00
1.750000e+01 -1.425000e+01 0.000000e+00
1.775000e+01 -1.450000e+01 0.000000e+00
1.700000e+01 -1.425000e+01 0.000000e+00
1.725000e+01 -1.450000e+01 0.000000e+00
1.650000e+01 -1.425000e+01 0.000000e+00
1.675000e+01 -1.450000e+01 0.000000e+00
1.600000e+01 -1.425000e+01 0.000000e+00
1.625000e+01 -1.450000e+01 0.000000e+00
1.550000e+01 -1.425000e+01 0.000000e+00
1.575000e+01 -1.450000e+01 0.000000e+00
1.500000e+01 -1.425000e+01 0.000000e+00
1.525000e+01 -1.450000e+01 0.000000e+00
2.950000e+01 -1.475000e+01 0.000000e+00
2.975000e+01 -1.500000e+01 0.000000e+00
3.000000e+01 -1.475000e+01 0.000000e+00
2.900000e+01 -1.475000e+01 0.000000e+00
2.925000e+01 -1.500000e+01 0.000000e+00
2.850000e+01 -1.475000e+01 0.000000e+00
2.875000e+01 -1.500000e+01 0.000000e+00
2.800000e+01 -1.475000e+01 0.000000e+00
2.825000e+01 -1.500000e+01 0.000000e+00
2.750000e+01 -1.475000e+01 0.000000e+00
2.775000e+01 -1.500000e+01 0.000000e+00
2.700000e+01 -1.475000e+01 0.000000e+00
2.725000e+01 -1.500000e+01 0.000000e+00
2.650000e+01 -1.475000e+01 0.000000e+00
2.675000e+01 -1.500000e+01 0.000000e+00
2.600000e+01 -1.475000e+01 0.000000e+00
2.625000e+01 -1.500000e+01 0.000000e+00
2.550000e+01 -1.475000e+01 0.000000e+00
2.575000e+01 -1.500000e+01 0.000000e+00
2.500000e+01 -1.475000e+01 0.000000e+00
2.525000e+01 -1.500000e+01 0.000000e+00
2.450000e+01 -1.475000e+01 0.000000e+00
2.475000e+01 -1.500000e+01 0.000000e+00
2.400000e+01 -1.475000e+01 0.000000e+00
2.425000e+01 -1.500000e+01 0.000000e+00
2.350000e+01 -1.475000e+01 0.000000e+00
2.375000e+01 -1.500000e+01 0.000000e+00
2.300000e+01 -1.475000e+01 0.000000e+00
2.325000e+01 -1.500000e+01 0.000000e+00
2.250000e+01 -1.475000e+01 0.000000e+00
2.275000e+01 -1.500000e+01 0.000000e+00
2.200000e+01 -1.475000e+01 0.000000e+00
2.225000e+01 -1.500000e+01 0.000000e+00
2.150000e+01 -1.475000e+01 0.000000e+00
2.175000e+01 -1.500000e+01 0.000000e+00
2.100000e+01 -1.475000e+01 0.000000e+00
2.125000e+01 -1.500000e+01 0.000000e+00
2.050000e+01 -1.475000e+01 0.000000e+00
2.075000e+01 -1.500000e+01 0.000000e+00
2.000000e+01 -1.475000e+01 0.000000e+00
2.025000e+01 -1.500000e+01 0.000000e+00
1.950000e+01 -1.475000e+01 0.000000e+00
1.975000e+01 -1.500000e+01 0.000000e+00
1.900000e+01 -1.475000e+01 0.000000e+00
1.925000e+01 -1.500000e+01 0.000000e+00
1.850000e+01 -1.475000e+01 0.000000e+00
1.875000e+01 -1.500000e+01 0.000000e+00
1.800000e+01 -1.475000e+01 0.000000e+00
1.825000e+01 -1.500000e+01 0.000000e+00
1.750000e+01 -1.475000e+01 0.000000e+00
1.775000e+01 -1.500000e+01 0.000000e+00
1.700000e+01 -1.475000e+01 0.000000e+00
1.725000e+01 -1.500000e+01 0.000000e+00
1.650000e+01 -1.475000e+01 0.000000e+00
1.675000e+01 -1.500000e+01 0.000000e+00
1.600000e+01 -1.475000e+01 0.000000e+00
1.625000e+01 -1.500000e+01 0.000000e+00
1.550000e+01 -1.475000e+01 0.000000e+00
1.575000e+01 -1.500000e+01 0.000000e+00
1.500000e+01 -1.475000e+01 0.000000e+00
1.525000e+01 -1.500000e+01 0.000000e+00
POLYGONS 1800 16200
8 0 1891 1 1892 32 1893 31 1894
8 1 1895 2 1896 33 1897 32 1892
8 2 1898 3 1899 34 1900 33 1896
8 3 1901 4 1902 35 1903 34 1899
8 4 1904 5 1905 36 1906 35 1902
8 5 1907 6 1908 37 1909 36 1905
8 6 1910 7 1911 38 1912 37 1908
8 7 1913 8 1914 39 1915 38 1911
8 8 1916 9 1917 40 1918 39 1914
8 9 1919 10 1920 41 1921 40 1917
8 10 1922 11 1923 42 1924 41 1920
8 11 1925 12 1926 43 1927 42 1923
8 12 1928 13 1929 44 1930 43 1926
8 13 1931 14 1932 45 1933 44 1929
8 14 1934 15 1935 46 1936 45 1932
8 15 1937 16 1938 47 1939 46 1935
8 16 1940 17 1941 48 1942 47 1938
8 17 1943 18 1944 49 1945 48 1941
8 18 1946 19 1947 50 1948 49 1944
8 19 1949 20 1950 51 1951 50 1947
8 20 1952 21 1953 52 1954 51 1950
8 21 1955 22 1956 53 1957 52 1953
8 22 1958 23 1959 54 1960 53 1956
8 23 1961 24 1962 55 1963 54 1959
8 24 1964 25 1965 56 1966 55 1962
8 25 1967 26 1968 57 1969 56 1965
8 26 1970 27 1971 58 1972 57 1968
8 27 1973 28 1974 59 1975 58 1971
8 28 1976 29 1977 60 1978 59 1974
8 29 1979 30 1980 61 1981 60 1977
8 31 1893 32 1982 63 1983 62 1984
8 32 1897 33 1985 64 1986 63 1982
8 33 1900 34 1987 65 1988 64 1985
8 34 1903 35 1989 66 1990 65 1987
8 35 1906 36 1991 67 1992 66 1989
8 36 1909 37 1993 68 1994 67 1991
8 37 1912 38 1995 69 1996 68 1993
8 38 1915 39 1997 70 1998 69 1995
8 39 1918 40 1999 71 2000 70 1997
8 40 1921 41 2001 72 2002 71 1999
8 41 1924 42 2003 73 2004 72 2001
8 42 1927 43 2005 74 2006 73 2003
8 43 1930 44 2007 75 2008 74 2005
8 44 1933 45 2009 76 2010 75 2007
8 45 1936 46 2011 77 2012 76 2009
8 46 1939 47 2013 78 2014 77 2011
8 47 1942 48 2015 79 2016 78 2013
8 48 1945 49 2017 80 2018 79 2015
8 49 1948 50 2019 81 2020 80 2017
8 50 1951 51 2021 82 2022 81 2019
8 51 1954 52 2023 83 2024 82 2021
8 52 1957 53 2025 84 2026 83 2023
8 53 1960 54 2027 85 2028 84 2025
8 54 1963 55 2029 86 2030 85 2027
8 55 1966 56 2031 87 2032 86 2029
8 56 1969 57 2033 88 2034 87 2031
8 57 1972 58 2035 89 2036 88 2033
8 58 1975 59 2037 90 2038 89 2035
8 59 1978 60 2039 91 2040 90 2037
8 60 1981 61 2041 92 2042 91 2039
8 62 1983 63 2043 94 2044 93 2045
8 63 1986 64 2046 95 2047 94 2043
8 64 1988 65 2048 96 2049 95 2046
8 65 1990 66 2050 97 2051 96 2048
8 66 1992 67 2052 98 2053 97 2050
8 67 1994 68 2054 99 2055 98 2052
8 68 1996 69 2056 100 2057 99 2054
8 69 1998 70 2058 101 2059 100 2056
8 70 2000 71 2060 102 2061 101 2058
8 71 2002 72 2062 103 2063 102 2060
8 72 2004 73 2064 104 2065 103 2062
8 73 2006 74 2066 105 2067 104 2064
8 74 2008 75 2068 106 2069 105 2066
8 75 2010 76 2070 107 2071 106 2068
8 76 2012 77 2072 108 2073 107 2070
8 77 2014 78 2074 109 2075 108 2072
8 78 2016 79 2076 110 2077 109 2074
8 79 2018 80 2078 111 2079 110 2076
8 80 2020 81 2080 112 2081 111 2078
8 81 2022 82 2082 113 2083 112 2080
8 82 2024 83 2084 114 2085 113 2082
8 83 2026 84 2086 115 2087 114 2084
8 84 2028 85 2088 116 2089 115 2086
8 85 2030 86 2090 117 2091 116 2088
8 86 2032 87 2092 118 2093 117 2090
8 87 2034 88 2094 119 2095 118 2092
8 88 2036 89 2096 120 2097 119 2094
8 89 2038 90 2098 121 2099 120 2096
8 90 2040 91 2100 122 2101 121 2098
8 91 2042 92 2102 123 2103 122 2100
8 93 2044 94 2104 125 2105 124 2106
8 94 2047 95 2107 126 2108 125 2104
8 95 2049 96 2109 127 2110 126 2107
8 96 2051 97 2111 128 2112 127 2109
8 97 2053 98 2113 129 2114 128 2111
8 98 2055 99 2115 130 2116 129 2113
8 99 2057 100 2117 131 2118 130 2115
8 100 2059 101 2119 132 2120 131 2117
8 101 2061 102 2121 133 2122 132 2119
8 102 2063 103 2123 134 2124 133 2121
8 103 2065 104 2125 135 2126 134 2123
8 104 2067 105 2127 136 2128 135 2125
8 105 2069 106 2129 137 2130 136 2127
8 106 2071 107 2131 138 2132 137 2129
8 107 2073 108 2133 139 2134 138 2131
8 108 2075 109 2135 140 2136 139 2133
8 109 2077 110 2137 141 2138 140 2135
8 110 2079 111 2139 142 2140 141 2137
8 111 2081 112 2141 143 2142 142 2139
8 112 2083 113 2143 144 2144 143 2141
8 113 2085 114 2145 145 2146 144 2143
8 114 2087 115 2147 146 2148 145 2145
8 115 2089 116 2149 147 2150 146 2147
8 116 2091 117 2151 148 2152 147 2149
8 117 2093 118 2153 149 2154 148 2151
8 118 2095 119 2155 150 2156 149 2153
8 119 2097 120 2157 151 2158 150 2155
8 120 2099 121 2159 152 2160 151 2157
8 121 2101 122 2161 153 2162 152 2159
8 122 2103 123 2163 154 2164 153 2161
8 124 2105 125 2165 156 2166 155 2167
8 125 2108 126 2168 157 2169 156 2165
8 126 2110 127 2170 158 2171 157 2168
8 127 2112 128 2172 159 2173 158 2170
8 128 2114 129 2174 160 2175 159 2172
8 129 2116 130 2176 161 2177 160 2174
8 130 2118 131 2178 162 2179 161 2176
8 131 2120 132 2180 163 2181 162 2178
8 132 2122 133 2182 164 2183 163 2180
8 133 2124 134 2184 165 2185 164 2182
8 134 2126 135 2186 166 2187 165 2184
8 135 2128 136 2188 167 2189 166 2186
8 136 2130 137 2190 168 2191 167 2188
8 137 2132 138 2192 169 2193 168 2190
8 138 2134 139 2194 170 2195 169 2192
8 139 2136 140 2196 171 2197 170 2194
8 140 2138 141 2198 172 2199 171 2196
8 141 2140 142 2200 173 2201 172 2198
8 142 2142 143 2202 174 2203 173 2200
8 143 2144 144 2204 175 2205 174 2202
8 144 2146 145 2206 176 2207 175 2204
8 145 2148 146 2208 177 2209 176 2206
8 146 2150 147 2210 178 2211 177 2208
8 147 2152 148 2212 179 2213 178 2210
8 148 2154 149 2214 180 2215 179 2212
8 149 2156 150 2216 181 2217 180 2214
8 150 2158 151 2218 182 2219 181 2216
8 151 2160 152 2220 183 2221 182 2218
8 152 2162 153 2222 184 2223 183 2220
8 153 2164 154 2224 185 2225 184 2222
8 155 2166 156 2226 187 2227 186 2228
8 156 2169 157 2229 188 2230 187 2226
8 157 2171 158 2231 189 2232 188 2229
8 158 2173 159 2233 190 2234 189 2231
8 159 2175 160 2235 191 2236 190 2233
8 160 2177 161 2237 192 2238 191 2235
8 161 2179 162 2239 193 2240 192 2237
8 162 2181 163 2241 194 2242 193 2239
8 163 2183 164 2243 195 2244 194 2241
8 164 2185 165 2245 196 2246 195 2243
8 165 2187 166 2247 197 2248 196 2245
8 166 2189 167 2249 198 2250 197 2247
8 167 2191 168 2251 199 2252 198 2249
8 168 2193 169 2253 200 2254 199 2251
8 169 2195 170 2255 201 2256 200 2253
8 170 2197 171 2257 202 2258 201 2255
8 171 2199 172 2259 203 2260 202 2257
8 172 2201 173 2261 204 2262 203 2259
8 173 2203 174 2263 205 2264 204 2261
8 174 2205 175 2265 206 2266 205 2263
8 175 2207 176 2267 207 2268 206 2265
8 176 2209 177 2269 208 2270 207 2267
8 177 2211 178 2271 209 2272 208 2269
8 178 2213 179 2273 210 2274 209 2271
8 179 2215 180 2275 211 2276 210 2273
8 180 2217 181 2277 212 2278 211 2275
8 181 2219 182 2279 213 2280 212 2277
8 182 2221 183 2281 214 2282 213 2279
8 183 2223 184 2283 215 2284 214 2281
8 184 2225 185 2285 216 2286 215 2283
8 186 2227 187 2287 218 2288 217 2289
8 187 2230 188 2290 219 2291 218 2287
8 188 2232 189 2292 220 2293 219 2290
8 189 2234 190 2294 221 2295 220 2292
8 190 2236 191 2296 222 2297 221 2294
8 191 2238 192 2298 223 2299 222 2296
8 192 2240 193 2300 224 2301 223 2298
8 193 2242 194 2302 225 2303 224 2300
8 194 2244 195 2304 226 2305 225 2302
8 195 2246 196 2306 227 2307 226 2304
8 196 2248 197 2308 228 2309 227 2306
8 197 2250 198 2310 229 2311 228 2308
8 198 2252 199 2312 230 2313 229 2310
8 199 2254 200 2314 231 2315 230 2312
8 200 2256 201 2316 232 2317 231 2314
8 201 2258 202 2318 233 2319 232 2316
8 202 2260 203 2320 234 2321 233 2318
8 203 2262 204 2322 235 2323 234 2320
8 204 2264 205 2324 236 2325 235 2322
8 205 2266 206 2326 237 2327 236 2324
8 206 2268 207 2328 238 2329 237 2326
8 207 2270 208 2330 239 2331 238 2328
8 208 2272 209 2332 240 2333 239 2330
8 209 2274 210 2334 241 2335 240 2332
8 210 2276 211 2336 242 2337 241 2334
8 211 2278 212 2338 243 2339 242 2336
8 212 2280 213 2340 244 2341 243 2338
8 213 2282 214 2342 245 2343 244 2340
8 214 2284 215 2344 246 2345 245 2342
8 215 2286 216 2346 247 2347 246 2344
8 217 2288 218 2348 249 2349 248 2350
8 218 2291 219 2351 250 2352 249 2348
8 219 2293 220 2353 251 2354 250 2351
8 220 2295 221 2355 252 2356 251 2353
8 221 2297 222 2357 253 2358 252 2355
8 222 2299 223 2359 254 2360 253 2357
8 223 2301 224 2361 255 2362 254 2359
8 224 2303 225 2363 256 2364 255 2361
8 225 2305 226 2365 257 2366 256 2363
8 226 2307 227 2367 258 2368 257 2365
8 227 2309 228 2369 259 2370 258 2367
8 228 2311 229 2371 260 2372 259 2369
8 229 2313 230 2373 261 2374 260 2371
8 230 2315 231 2375 262 2376 261 2373
8 231 2317 232 2377 263 2378 262 2375
8 232 2319 233 2379 264 2380 263 2377
8 233 2321 234 2381 265 2382 264 2379
8 234 2323 235 2383 266 2384 265 2381
8 235 2325 236 2385 267 2386 266 2383
8 236 2327 237 2387 268 2388 267 2385
8 237 2329 238 2389 269 2390 268 2387
8 238 2331 239 2391 270 2392 269 2389
8 239 2333 240 2393 271 2394 270 2391
8 240 2335 241 2395 272 2396 271 2393
8 241 2337 242 2397 273 2398 272 2395
8 242 2339 243 2399 274 2400 273 2397
8 243 2341 244 2401 275 2402 274 2399
8 244 2343 245 2403 276 2404 275 2401
8 245 2345 246 2405 277 2406 276 2403
8 246 2347 247 2407 278 2408 277 2405
8 248 2349 249 2409 280 2410 279 2411
8 249 2352 250 2412 281 2413 280 2409
8 250 2354 251 2414 282 2415 281 2412
8 251 2356 252 2416 283 2417 282 2414
8 252 2358 253 2418 284 2419 283 2416
8 253 2360 254 2420 285 2421 284 2418
8 254 2362 255 2422 286 2423 285 2420
8 255 2364 256 2424 287 2425 286 2422
8 256 2366 257 2426 288 2427 287 2424
8 257 2368 258 2428 289 2429 288 2426
8 258 2370 259 2430 290 2431 289 2428
8 259 2372 260 2432 291 2433 290 2430
8 260 2374 261 2434 292 2435 291 2432
8 261 2376 262 2436 293 2437 292 2434
8 262 2378 263 2438 294 2439 293 2436
8 263 2380 264 2440 295 2441 294 2438
8 264 2382 265 2442 296 2443 295 2440
8 265 2384 266 2444 297 2445 296 2442
8 266 2386 267 2446 298 2447 297 2444
8 267 2388 268 2448 299 2449 298 2446
8 268 2390 269 2450 300 2451 299 2448
8 269 2392 270 2452 301 2453 300 2450
8 270 2394 271 2454 302 2455 301 2452
8 271 2396 272 2456 303 2457 302 2454
8 272 2398 273 2458 304 2459 303 2456
8 273 2400 274 2460 305 2461 304 2458
8 274 2402 275 2462 306 2463 305 2460
8 275 2404 276 2464 307 2465 306 2462
8 276 2406 277 2466 308 2467 307 2464
8 277 2408 278 2468 309 2469 308 2466
8 279 2410 280 2470 311 2471 310 2472
8 280 2413 281 2473 312 2474 311 2470
8 281 2415 282 2475 313 2476 312 2473
8 282 2417 283 2477 314 2478 313 2475
8 283 2419 284 2479 315 2480 314 2477
8 284 2421 285 2481 316 2482 315 2479
8 285 2423 286 2483 317 2484 316 2481
8 286 2425 287 2485 318 2486 317 2483
8 287 2427 288 2487 319 2488 318 2485
8 288 2429 289 2489 320 2490 319 2487
8 289 2431 290 2491 321 2492 320 2489
8 290 2433 291 2493 322 2494 321 2491
8 291 2435 292 2495 323 2496 322 2493
8 292 2437 293 2497 324 2498 323 2495
8 293 2439 294 2499 325 2500 324 2497
8 294 2441 295 2501 326 2502 325 2499
8 295 2443 296 2503 327 2504 326 2501
8 296 2445 297 2505 328 2506 327 2503
8 297 2447 298 2507 329 2508 328 2505
8 298 2449 299 2509 330 2510 329 2507
8 299 2451 300 2511 331 2512 330 2509
8 300 2453 301 2513 332 2514 331 2511
8 301 2455 302 2515 333 2516 332 2513
8 302 2457 303 2517 334 2518 333 2515
8 303 2459 304 2519 335 2520 334 2517
8 304 2461 305 2521 336 2522 335 2519
8 305 2463 306 2523 337 2524 336 2521
8 306 2465 307 2525 338 2526 337 2523
8 307 2467 308 2527 339 2528 338 2525
8 308 2469 309 2529 340 2530 339 2527
8 310 2471 311 2531 342 2532 341 2533
8 311 2474 312 2534 343 2535 342 2531
8 312 2476 313 2536 344 2537 343 2534
8 313 2478 314 2538 345 2539 344 2536
8 314 2480 315 2540 346 2541 345 2538
8 315 2482 316 2542 347 2543 346 2540
8 316 2484 317 2544 348 2545 347 2542
8 317 2486 318 2546 349 2547 348 2544
8 318 2488 319 2548 350 2549 349 2546
8 319 2490 320 2550 351 2551 350 2548
8 320 2492 321 2552 352 2553 351 2550
8 321 2494 322 2554 353 2555 352 2552
8 322 2496 323 2556 354 2557 353 2554
8 323 2498 324 2558 355 2559 354 2556
8 324 2500 325 2560 356 2561 355 2558
8 325 2502 326 2562 357 2563 356 2560
8 326 2504 327 2564 358 2565 357 2562
8 327 2506 328 2566 359 2567 358 2564
8 328 2508 329 2568 360 2569 359 2566
8 329 2510 330 2570 361 2571 360 2568
8 330 2512 331 2572 362 2573 361 2570
8 331 2514 332 2574 363 2575 362 2572
8 332 2516 333 2576 364 2577 363 2574
8 333 2518 334 2578 365 2579 364 2576
8 334 2520 335 2580 366 2581 365 2578
8 335 2522 336 2582 367 2583 366 2580
8 336 2524 337 2584 368 2585 367 2582
8 337 2526 338 2586 369 2587 368 2584
8 338 2528 339 2588 370 2589 369 2586
8 339 2530 340 2590 371 2591 370 2588
8 341 2532 342 2592 373 2593 372 2594
8 342 2535 343 2595 374 2596 373 2592
8 343 2537 344 2597 375 2598 374 2595
8 344 2539 345 2599 376 2600 375 2597
8 345 2541 346 2601 377 2602 376 2599
8 346 2543 347 2603 378 2604 377 2601
8 347 2545 348 2605 379 2606 378 2603
8 348 2547 349 2607 380 2608 379 2605
8 349 2549 350 2609 381 2610 380 2607
8 350 2551 351 2611 382 2612 381 2609
8 351 2553 352 2613 383 2614 382 2611
8 352 2555 353 2615 384 2616 383 2613
8 353 2557 354 2617 385 2618 384 2615
8 354 2559 355 2619 386 2620 385 2617
8 355 2561 356 2621 387 2622 386 2619
8 356 2563 357 2623 388 2624 387 2621
8 357 2565 358 2625 389 2626 388 2623
8 358 2567 359 2627 390 2628 389 2625
8 359 2569 360 2629 391 2630 390 2627
8 360 2571 361 2631 392 2632 391 2629
8 361 2573 362 2633 393 2634 392 2631
8 362 2575 363 2635 394 2636 393 2633
8 363 2577 364 2637 395 2638 394 2635
8 364 2579 365 2639 396 2640 395 2637
8 365 2581 366 2641 397 2642 396 2639
8 366 2583 367 2643 398 2644 397 2641
8 367 2585 368 2645 399 2646 398 2643
8 368 2587 369 2647 400 2648 399 2645
8 369 2589 370 2649 401 2650 400 2647
8 370 2591 371 2651 402 2652 401 2649
8 372 2593 373 2653 404 2654 403 2655
8 373 2596 374 2656 405 2657 404 2653
8 374 2598 375 2658 406 2659 405 2656
8 375 2600 376 2660 407 2661 406 2658
8 376 2602 377 2662 408 2663 407 2660
8 377 2604 378 2664 409 2665 408 2662
8 378 2606 379 2666 410 2667 409 2664
8 379 2608 380 2668 411 2669 410 2666
8 380 2610 381 2670 412 2671 411 2668
8 381 2612 382 2672 413 2673 412 2670
8 382 2614 383 2674 414 2675 413 2672
8 383 2616 384 2676 415 2677 414 2674
8 384 2618 385 2678 416 2679 415 2676
8 385 2620 386 2680 417 2681 416 2678
8 386 2622 387 2682 418 2683 417 2680
8 387 2624 388 2684 419 2685 418 2682
8 388 2626 389 2686 420 2687 419 2684
8 389 2628 390 2688 421 2689 420 2686
8 390 2630 391 2690 422 2691 421 2688
8 391 2632 392 2692 423 2693 422 2690
8 392 2634 393 2694 424 2695 423 2692
8 393 2636 394 2696 425 2697 424 2694
8 394 2638 395 2698 426 2699 425 2696
8 395 2640 396 2700 427 2701 426 2698
8 396 2642 397 2702 428 2703 427 2700
8 397 2644 398 2704 429 2705 428 2702
8 398 2646 399 2706 430 2707 429 2704
8 399 2648 400 2708 431 2709 430 2706
8 400 2650 401 2710 432 2711 431 2708
8 401 2652 402 2712 433 2713 432 2710
8 403 2654 404 2714 435 2715 434 2716
8 404 2657 405 2717 436 2718 435 2714
8 405 2659 406 2719 437 2720 436 2717
8 406 2661 407 2721 438 2722 437 2719
8 407 2663 408 2723 439 2724 438 2721
8 408 2665 409 2725 440 2726 439 2723
8 409 2667 410 2727 441 2728 440 2725
8 410 2669 411 2729 442 2730 441 2727
8 411 2671 412 2731 443 2732 442 2729
8 412 2673 413 2733 444 2734 443 2731
8 413 2675 414 2735 445 2736 444 2733
8 414 2677 415 2737 446 2738 445 2735
8 415 2679 416 2739 447 2740 446 2737
8 416 2681 417 2741 448 2742 447 2739
8 417 2683 418 2743 449 2744 448 2741
8 418 2685 419 2745 450 2746 449 2743
8 419 2687 420 2747 451 2748 450 2745
8 420 2689 421 2749 452 2750 451 2747
8 421 2691 422 2751 453 2752 452 2749
8 422 2693 423 2753 454 2754 453 2751
8 423 2695 424 2755 455 2756 454 2753
8 424 2697 425 2757 456 2758 455 2755
8 425 2699 426 2759 457 2760 456 2757
8 426 2701 427 2761 458 2762 457 2759
8 427 2703 428 2763 459 2764 458 2761
8 428 2705 429 2765 460 2766 459 2763
8 429 2707 430 2767 461 2768 460 2765
8 430 2709 431 2769 462 2770 461 2767
8 431 2711 432 2771 463 2772 462 2769
8 432 2713 433 2773 464 2774 463 2771
8 434 2715 435 2775 466 2776 465 2777
8 435 2718 436 2778 467 2779 466 2775
8 436 2720 437 2780 468 2781 467 2778
8 437 2722 438 2782 469 2783 468 2780
8 438 2724 439 2784 470 2785 469 2782
8 439 2726 440 2786 471 2787 470 2784
8 440 2728 441 2788 472 2789 471 2786
8 441 2730 442 2790 473 2791 472 2788
8 442 2732 443 2792 474 2793 473 2790
8 443 2734 444 2794 475 2795 474 2792
8 444 2736 445 2796 476 2797 475 2794
8 445 2738 446 2798 477 2799 476 2796
8 446 2740 447 2800 478 2801 477 2798
8 447 2742 448 2802 479 2803 478 2800
8 448 2744 449 2804 480 2805 479 2802
8 449 2746 450 2806 481 2807 480 2804
8 450 2748 451 2808 482 2809 481 2806
8 451 2750 452 2810 483 2811 482 2808
8 452 2752 453 2812 484 2813 483 2810
8 453 2754 454 2814 485 2815 484 2812
8 454 2756 455 2816 486 2817 485 2814
8 455 2758 456 2818 487 2819 486 2816
8 456 2760 457 2820 488 2821 487 2818
8 457 2762 458 2822 489 2823 488 2820
8 458 2764 459 2824 490 2825 489 2822
8 459 2766 460 2826 491 2827 490 2824
8 460 2768 461 2828 492 2829 491 2826
8 461 2770 462 2830 493 2831 492 2828
8 462 2772 463 2832 494 2833 493 2830
8 463 2774 464 2834 495 2835 494 2832
8 465 2776 466 2836 497 2837 496 2838
8 466 2779 467 2839 498 2840 497 2836
8 467 2781 468 2841 499 2842 498 2839
8 468 2783 469 2843 500 2844 499 2841
8 469 2785 470 2845 501 2846 500 2843
8 470 2787 471 2847 502 2848 501 2845
8 471 2789 472 2849 503 2850 502 2847
8 472 2791 473 2851 504 2852 503 2849
8 473 2793 474 2853 505 2854 504 2851
8 474 2795 475 2855 506 2856 505 2853
8 475 2797 476 2857 507 2858 506 2855
8 476 2799 477 2859 508 2860 507 2857
8 477 2801 478 2861 509 2862 508 2859
8 478 2803 479 2863 510 2864 509 2861
8 479 2805 480 2865 511 2866 510 2863
8 480 2807 481 2867 512 2868 511 2865
8 481 2809 482 2869 513 2870 512 2867
8 482 2811 483 2871 514 2872 513 2869
8 483 2813 484 2873 515 2874 514 2871
8 484 2815 485 2875 516 2876 515 2873
8 485 2817 486 2877 517 2878 516 2875
8 486 2819 487 2879 518 2880 517 2877
8 487 2821 488 2881 519 2882 518 2879
8 488 2823 489 2883 520 2884 519 2881
8 489 2825 490 2885 521 2886 520 2883
8 490 2827 491 2887 522 2888 521 2885
8 491 2829 492 2889 523 2890 522 2887
8 492 2831 493 2891 524 2892 523 2889
8 493 2833 494 2893 525 2894 524 2891
8 494 2835 495 2895 526 2896 525 2893
8 496 2837 497 2897 528 2898 527 2899
8 497 2840 498 2900 529 2901 528 2897
8 498 2842 499 2902 530 2903 529 2900
8 499 2844 500 2904 531 2905 530 2902
8 500 2846 501 2906 532 2907 531 2904
8 501 2848 502 2908 533 2909 532 2906
8 502 2850 503 2910 534 2911 533 2908
8 503 2852 504 2912 535 2913 534 2910
8 504 2854 505 2914 536 2915 535 2912
8 505 2856 506 2916 537 2917 536 2914
8 506 2858 507 2918 538 2919 537 2916
8 507 2860 508 2920 539 2921 538 2918
8 508 2862 509 2922 540 2923 539 2920
8 509 2864 510 2924 541 2925 540 2922
8 510 2866 511 2926 542 2927 541 2924
8 511 2868 512 2928 543 2929 542 2926
8 512 2870 513 2930 544 2931 543 2928
8 513 2872 514 2932 545 2933 544 2930
8 514 2874 515 2934 546 2935 545 2932
8 515 2876 516 2936 547 2937 546 2934
8 516 2878 517 2938 548 2939 547 2936
8 517 2880 518 2940 549 2941 548 2938
8 518 2882 519 2942 550 2943 549 2940
8 519 2884 520 2944 551 2945 550 2942
8 520 2886 521 2946 552 2947 551 2944
8 521 2888 522 2948 553 2949 552 2946
8 522 2890 523 2950 554 2951 553 2948
8 523 2892 524 2952 555 2953 554 2950
8 524 2894 525 2954 556 2955 555 2952
8 525 2896 526 2956 557 2957 556 2954
8 527 2898 528 2958 559 2959 558 2960
8 528 2901 529 2961 560 2962 559 2958
8 529 2903 530 2963 561 2964 560 2961
8 530 2905 531 2965 562 2966 561 2963
8 531 2907 532 2967 563 2968 562 2965
8 532 2909 533 2969 564 2970 563 2967
8 533 2911 534 2971 565 2972 564 2969
8 534 2913 535 2973 566 2974 565 2971
8 535 2915 536 2975 567 2976 566 2973
8 536 2917 537 2977 568 2978 567 2975
8 537 2919 538 2979 569 2980 568 2977
8 538 2921 539 2981 570 2982 569 2979
8 539 2923 540 2983 571 2984 570 2981
8 540 2925 541 2985 572 2986 571 2983
8 541 2927 542 2987 573 2988 572 2985
8 542 2929 543 2989 574 2990 573 2987
8 543 2931 544 2991 575 2992 574 2989
8 544 2933 545 2993 576 2994 575 2991
8 545 2935 546 2995 577 2996 576 2993
8 546 2937 547 2997 578 2998 577 2995
8 547 2939 548 2999 579 3000 578 2997
8 548 2941 549 3001 580 3002 579 2999
8 549 2943 550 3003 581 3004 580 3001
8 550 2945 551 3005 582 3006 581 3003
8 551 2947 552 3007 583 3008 582 3005
8 552 2949 553 3009 584 3010 583 3007
8 553 2951 554 3011 585 3012 584 3009
8 554 2953 555 3013 586 3014 585 3011
8 555 2955 556 3015 587 3016 586 3013
8 556 2957 557 3017 588 3018 587 3015
8 558 2959 559 3019 590 3020 589 3021
8 559 2962 560 3022 591 3023 590 3019
8 560 2964 561 3024 592 3025 591 3022
8 561 2966 562 3026 593 3027 592 3024
8 562 2968 563 3028 594 3029 593 3026
8 563 2970 564 3030 595 3031 594 3028
8 564 2972 565 3032 596 3033 595 3030
8 565 2974 566 3034 597 3035 596 3032
8 566 2976 567 3036 598 3037 597 3034
8 567 2978 568 3038 599 3039 598 3036
8 568 2980 569 3040 600 3041 599 3038
8 569 2982 570 3042 601 3043 600 3040
8 570 2984 571 3044 602 3045 601 3042
8 571 2986 572 3046 603 3047 602 3044
8 572 2988 573 3048 604 3049 603 3046
8 573 2990 574 3050 605 3051 604 3048
8 574 2992 575 3052 606 3053 605 3050
8 575 2994 576 3054 607 3055 606 3052
8 576 2996 577 3056 608 3057 607 3054
8 577 2998 578 3058 609 3059 608 3056
8 578 3000 579 3060 610 3061 609 3058
8 579 3002 580 3062 611 3063 610 3060
8 580 3004 581 3064 612 3065 611 3062
8 581 3006 582 3066 613 3067 612 3064
8 582 3008 583 3068 614 3069 613 3066
8 583 3010 584 3070 615 3071 614 3068
8 584 3012 585 3072 616 3073 615 3070
8 585 3014 586 3074 617 3075 616 3072
8 586 3016 587 3076 618 3077 617 3074
8 587 3018 588 3078 619 3079 618 3076
8 589 3020 590 3080 621 3081 620 3082
8 590 3023 591 3083 622 3084 621 3080
8 591 3025 592 3085 623 3086 622 3083
8 592 3027 593 3087 624 3088 623 3085
8 593 3029 594 3089 625 3090 624 3087
8 594 3031 595 3091 626 3092 625 3089
8 595 3033 596 3093 627 3094 626 3091
8 596 3035 597 3095 628 3096 627 3093
8 597 3037 598 3097 629 3098 628 3095
8 598 3039 599 3099 630 3100 629 3097
8 599 3041 600 3101 631 3102 630 3099
8 600 3043 601 3103 632 3104 631 3101
8 601 3045 602 3105 633 3106 632 3103
8 602 3047 603 3107 634 3108 633 3105
8 603 3049 604 3109 635 3110 634 3107
8 604 3051 605 3111 636 3112 635 3109
8 605 3053 606 3113 637 3114 636 3111
8 606 3055 607 3115 638 3116 637 3113
8 607 3057 608 3117 639 3118 638 3115
8 608 3059 609 3119 640 3120 639 3117
8 609 3061 610 3121 641 3122 640 3119
8 610 3063 611 3123 642 3124 641 3121
8 611 3065 612 3125 643 3126 642 3123
8 612 3067 613 3127 644 3128 643 3125
8 613 3069 614 3129 645 3130 644 3127
8 614 3071 615 3131 646 3132 645 3129
8 615 3073 616 3133 647 3134 646 3131
8 616 3075 617 3135 648 3136 647 3133
8 617 3077 618 3137 649 3138 648 3135
8 618 3079 619 3139 650 3140 649 3137
8 620 3081 621 3141 652 3142 651 3143
8 621 3084 622 3144 653 3145 652 3141
8 622 3086 623 3146 654 3147 653 3144
8 623 3088 624 3148 655 3149 654 3146
8 624 3090 625 3150 656 3151 655 3148
8 625 3092 626 3152 657 3153 656 3150
8 626 3094 627 3154 658 3155 657 3152
8 627 3096 628 3156 659 3157 658 3154
8 628 3098 629 3158 660 3159 659 3156
8 629 3100 630 3160 661 3161 660 3158
8 630 3102 631 3162 662 3163 661 3160
8 631 3104 632 3164 663 3165 662 3162
8 632 3106 633 3166 664 3167 663 3164
8 633 3108 634 3168 665 3169 664 3166
8 634 3110 635 3170 666 3171 665 3168
8 635 3112 636 3172 667 3173 666 3170
8 636 3114 637 3174 668 3175 667 3172
8 637 3116 638 3176 669 3177 668 3174
8 638 3118 639 3178 670 3179 669 3176
8 639 3120 640 3180 671 3181 670 3178
8 640 3122 641 3182 672 3183 671 3180
8 641 3124 642 3184 673 3185 672 3182
8 642 3126 643 3186 674 3187 673 3184
8 643 3128 644 3188 675 3189 674 3186
8 644 3130 645 3190 676 3191 675 3188
8 645 3132 646 3192 677 3193 676 3190
8 646 3134 647 3194 678 3195 677 3192
8 647 3136 648 3196 679 3197 678 3194
8 648 3138 649 3198 680 3199 679 3196
8 649 3140 650 3200 681 3201 680 3198
8 651 3142 652 3202 683 3203 682 3204
8 652 3145 653 3205 684 3206 683 3202
8 653 3147 654 3207 685 3208 684 3205
8 654 3149 655 3209 686 3210 685 3207
8 655 3151 656 3211 687 3212 686 3209
8 656 3153 657 3213 688 3214 687 3211
8 657 3155 658 3215 689 3216 688 3213
8 658 3157 659 3217 690 3218 689 3215
8 659 3159 660 3219 691 3220 690 3217
8 660 3161 661 3221 692 3222 691 3219
8 661 3163 662 3223 693 3224 692 3221
8 662 3165 663 3225 694 3226 693 3223
8 663 3167 664 3227 695 3228 694 3225
8 664 3169 665 3229 696 3230 695 3227
8 665 3171 666 3231 697 3232 696 3229
8 666 3173 667 3233 698 3234 697 3231
8 667 3175 668 3235 699 3236 698 3233
8 668 3177 669 3237 700 3238 699 3235
8 669 3179 670 3239 701 3240 700 3237
8 670 3181 671 3241 702 3242 701 3239
8 671 3183 672 3243 703 3244 702 3241
8 672 3185 673 3245 704 3246 703 3243
8 673 3187 674 3247 705 3248 704 3245
8 674 3189 675 3249 706 3250 705 3247
8 675 3191 676 3251 707 3252 706 3249
8 676 3193 677 3253 708 3254 707 3251
8 677 3195 678 3255 709 3256 708 3253
8 678 3197 679 3257 710 3258 709 3255
8 679 3199 680 3259 711 3260 710 3257
8 680 3201 681 3261 712 3262 711 3259
8 682 3203 683 3263 714 3264 713 3265
8 683 3206 684 3266 715 3267 714 3263
8 684 3208 685 3268 716 3269 715 3266
8 685 3210 686 3270 717 3271 716 3268
8 686 3212 687 3272 718 3273 717 3270
8 687 3214 688 3274 719 3275 718 3272
8 688 3216 689 3276 720 3277 719 3274
8 689 3218 690 3278 721 3279 720 3276
8 690 3220 691 3280 722 3281 721 3278
8 691 3222 692 3282 723 3283 722 3280
8 692 3224 693 3284 724 3285 723 3282
8 693 3226 694 3286 725 3287 724 3284
8 694 3228 695 3288 726 3289 725 3286
8 695 3230 696 3290 727 3291 726 3288
8 696 3232 697 3292 728 3293 727 3290
8 697 3234 698 3294 729 3295 728 3292
8 698 3236 699 3296 730 3297 729 3294
8 699 3238 700 3298 731 3299 730 3296
8 700 3240 701 3300 732 3301 731 3298
8 701 3242 702 3302 733 3303 732 3300
8 702 3244 703 3304 734 3305 733 3302
8 703 3246 704 3306 735 3307 734 3304
8 704 3248 705 3308 736 3309 735 3306
8 705 3250 706 3310 737 3311 736 3308
8 706 3252 707 3312 738 3313 737 3310
8 707 3254 708 3314 739 3315 738 3312
8 708 3256 709 3316 740 3317 739 3314
8 709 3258 710 3318 741 3319 740 3316
8 710 3260 711 3320 742 3321 741 3318
8 711 3262 712 3322 743 3323 742 3320
8 713 3264 714 3324 745 3325 744 3326
8 714 3267 715 3327 746 3328 745 3324
8 715 3269 716 3329 747 3330 746 3327
8 716 3271 717 3331 748 3332 747 3329
8 717 3273 718 3333 749 3334 748 3331
8 718 3275 719 3335 750 3336 749 3333
8 719 3277 720 3337 751 3338 750 3335
8 720 3279 721 3339 752 3340 751 3337
8 721 3281 722 3341 753 3342 752 3339
8 722 3283 723 3343 754 3344 753 3341
8 723 3285 724 3345 755 3346 754 3343
8 724 3287 725 3347 756 3348 755 3345
8 725 3289 726 3349 757 3350 756 3347
8 726 3291 727 3351 758 3352 757 3349
8 727 3293 728 3353 759 3354 758 3351
8 728 3295 729 3355 760 3356 759 3353
8 729 3297 730 3357 761 3358 760 3355
8 730 3299 731 3359 762 3360 761 3357
8 731 3301 732 3361 763 3362 762 3359
8 732 3303 733 3363 764 3364 763 3361
8 733 3305 734 3365 765 3366 764 3363
8 734 3307 735 3367 766 3368 765 3365
8 735 3309 736 3369 767 3370 766 3367
8 736 3311 737 3371 768 3372 767 3369
8 737 3313 738 3373 769 3374 768 3371
8 738 3315 739 3375 770 3376 769 3373
8 739 3317 740 3377 771 3378 770 3375
8 740 3319 741 3379 772 3380 771 3377
8 741 3321 742 3381 773 3382 772 3379
8 742 3323 743 3383 774 3384 773 3381
8 744 3325 745 3385 776 3386 775 3387
8 745 3328 746 3388 777 3389 776 3385
8 746 3330 747 3390 778 3391 777 3388
8 747 3332 748 3392 779 3393 778 3390
8 748 3334 749 3394 780 3395 779 3392
8 749 3336 750 3396 781 3397 780 3394
8 750 3338 751 3398 782 3399 781 3396
8 751 3340 752 3400 783 3401 782 3398
8 752 3342 753 3402 784 3403 783 3400
8 753 3344 754 3404 785 3405 784 3402
8 754 3346 755 3406 786 3407 785 3404
8 755 3348 756 3408 787 3409 786 3406
8 756 3350 757 3410 788 3411 787 3408
8 757 3352 758 3412 789 3413 788 3410
8 758 3354 759 3414 790 3415 789 3412
8 759 3356 760 3416 791 3417 790 3414
8 760 3358 761 3418 792 3419 791 3416
8 761 3360 762 3420 793 3421 792 3418
8 762 3362 763 3422 794 3423 793 3420
8 763 3364 764 3424 795 3425 794 3422
8 764 3366 765 3426 796 3427 795 3424
8 765 3368 766 3428 797 3429 796 3426
8 766 3370 767 3430 798 3431 797 3428
8 767 3372 768 3432 799 3433 798 3430
8 768 3374 769 3434 800 3435 799 3432
8 769 3376 770 3436 801 3437 800 3434
8 770 3378 771 3438 802 3439 801 3436
8 771 3380 772 3440 803 3441 802 3438
8 772 3382 773 3442 804 3443 803 3440
8 773 3384 774 3444 805 3445 804 3442
8 775 3386 776 3446 807 3447 806 3448
8 776 3389 777 3449 808 3450 807 3446
8 777 3391 778 3451 809 3452 808 3449
8 778 3393 779 3453 810 3454 809 3451
8 779 3395 780 3455 811 3456 810 3453
8 780 3397 781 3457 812 3458 811 3455
8 781 3399 782 3459 813 3460 812 3457
8 782 3401 783 3461 814 3462 813 3459
8 783 3403 784 3463 815 3464 814 3461
8 784 3405 785 3465 816 3466 815 3463
8 785 3407 786 3467 817 3468 816 3465
8 786 3409 787 3469 818 3470 817 3467
8 787 3411 788 3471 819 3472 818 3469
8 788 3413 789 3473 820 3474 819 3471
8 789 3415 790 3475 821 3476 820 3473
8 790 3417 791 3477 822 3478 821 3475
8 791 3419 792 3479 823 3480 822 3477
8 792 3421 793 3481 824 3482 823 3479
8 793 3423 794 3483 825 3484 824 3481
8 794 3425 795 3485 826 3486 825 3483
8 795 3427 796 3487 827 3488 826 3485
8 796 3429 797 3489 828 3490 827 3487
8 797 3431 798 3491 829 3492 828 3489
8 798 3433 799 3493 830 3494 829 3491
8 799 3435 800 3495 831 3496 830 3493
8 800 3437 801 3497 832 3498 831 3495
8 801 3439 802 3499 833 3500 832 3497
8 802 3441 803 3501 834 3502 833 3499
8 803 3443 804 3503 835 3504 834 3501
8 804 3445 805 3505 836 3506 835 3503
8 806 3447 807 3507 838 3508 837 3509
8 807 3450 808 3510 839 3511 838 3507
8 808 3452 809 3512 840 3513 839 3510
8 809 3454 810 3514 841 3515 840 3512
8 810 3456 811 3516 842 3517 841 3514
8 811 3458 812 3518 843 3519 842 3516
8 812 3460 813 3520 844 3521 843 3518
8 813 3462 814 3522 845 3523 844 3520
8 814 3464 815 3524 846 3525 845 3522
8 815 3466 816 3526 847 3527 846 3524
8 816 3468 817 3528 848 3529 847 3526
8 817 3470 818 3530 849 3531 848 3528
8 818 3472 819 3532 850 3533 849 3530
8 819 3474 820 3534 851 3535 850 3532
8 820 3476 821 3536 852 3537 851 3534
8 821 3478 822 3538 853 3539 852 3536
8 822 3480 823 3540 854 3541 853 3538
8 823 3482 824 3542 855 3543 854 3540
8 824 3484 825 3544 856 3545 855 3542
8 825 3486 826 3546 857 3547 856 3544
8 826 3488 827 3548 858 3549 857 3546
8 827 3490 828 3550 859 3551 858 3548
8 828 3492 829 3552 860 3553 859 3550
8 829 3494 830 3554 861 3555 860 3552
8 830 3496 831 3556 862 3557 861 3554
8 831 3498 832 3558 863 3559 862 3556
8 832 3500 833 3560 864 3561 863 3558
8 833 3502 834 3562 865 3563 864 3560
8 834 3504 835 3564 866 3565 865 3562
8 835 3506 836 3566 867 3567 866 3564
8 837 3508 838 3568 869 3569 868 3570
8 838 3511 839 3571 870 3572 869 3568
8 839 3513 840 3573 871 3574 870 3571
8 840 3515 841 3575 872 3576 871 3573
8 841 3517 842 3577 873 3578 872 3575
8 842 3519 843 3579 874 3580 873 3577
8 843 3521 844 3581 875 3582 874 3579
8 844 3523 845 3583 876 3584 875 3581
8 845 3525 846 3585 877 3586 876 3583
8 846 3527 847 3587 878 3588 877 3585
8 847 3529 848 3589 879 3590 878 3587
8 848 3531 849 3591 880 3592 879 3589
8 849 3533 850 3593 881 3594 880 3591
8 850 3535 851 3595 882 3596 881 3593
8 851 3537 852 3597 883 3598 882 3595
8 852 3539 853 3599 884 3600 883 3597
8 853 3541 854 3601 885 3602 884 3599
8 854 3543 855 3603 886 3604 885 3601
8 855 3545 856 3605 887 3606 886 3603
8 856 3547 857 3607 888 3608 887 3605
8 857 3549 858 3609 889 3610 888 3607
8 858 3551 859 3611 890 3612 889 3609
8 859 3553 860 3613 891 3614 890 3611
8 860 3555 861 3615 892 3616 891 3613
8 861 3557 862 3617 893 3618 892 3615
8 862 3559 863 3619 894 3620 893 3617
8 863 3561 864 3621 895 3622 894 3619
8 864 3563 865 3623 896 3624 895 3621
8 865 3565 866 3625 897 3626 896 3623
8 866 3567 867 3627 898 3628 897 3625
8 868 3569 869 3629 900 3630 899 3631
8 869 3572 870 3632 901 3633 900 3629
8 870 3574 871 3634 902 3635 901 3632
8 871 3576 872 3636 903 3637 902 3634
8 872 3578 873 3638 904 3639 903 3636
8 873 3580 874 3640 905 3641 904 3638
8 874 3582 875 3642 906 3643 905 3640
8 875 3584 876 3644 907 3645 906 3642
8 876 3586 877 3646 908 3647 907 3644
8 877 3588 878 3648 909 3649 908 3646
8 878 3590 879 3650 910 3651 909 3648
8 879 3592 880 3652 911 3653 910 3650
8 880 3594 881 3654 912 3655 911 3652
8 881 3596 882 3656 913 3657 912 3654
8 882 3598 883 3658 914 3659 913 3656
8 883 3600 884 3660 915 3661 914 3658
8 884 3602 885 3662 916 3663 915 3660
8 885 3604 886 3664 917 3665 916 3662
8 886 3606 887 3666 918 3667 917 3664
8 887 3608 888 3668 919 3669 918 3666
8 888 3610 889 3670 920 3671 919 3668
8 889 3612 890 3672 921 3673 920 3670
8 890 3614 891 3674 922 3675 921 3672
8 891 3616 892 3676 923 3677 922 3674
8 892 3618 893 3678 924 3679 923 3676
8 893 3620 894 3680 925 3681 924 3678
8 894 3622 895 3682 926 3683 925 3680
8 895 3624 896 3684 927 3685 926 3682
8 896 3626 897 3686 928 3687 927 3684
8 897 3628 898 3688 929 3689 928 3686
8 899 3630 900 3690 931 3691 930 3692
8 900 3633 901 3693 932 3694 931 3690
8 901 3635 902 3695 933 3696 932 3693
8 902 3637 903 3697 934 3698 933 3695
8 903 3639 904 3699 935 3700 934 3697
8 904 3641 905 3701 936 3702 935 3699
8 905 3643 906 3703 937 3704 936 3701
8 906 3645 907 3705 938 3706 937 3703
8 907 3647 908 3707 939 3708 938 3705
8 908 3649 909 3709 940 3710 939 3707
8 909 3651 910 3711 941 3712 940 3709
8 910 3653 911 3713 942 3714 941 3711
8 911 3655 912 3715 943 3716 942 3713
8 912 3657 913 3717 944 3718 943 3715
8 913 3659 914 3719 945 3720 944 3717
8 914 3661 915 3721 946 3722 945 3719
8 915 3663 916 3723 947 3724 946 3721
8 916 3665 917 3725 948 3726 947 3723
8 917 3667 918 3727 949 3728 948 3725
8 918 3669 919 3729 950 3730 949 3727
8 919 3671 920 3731 951 3732 950 3729
8 920 3673 921 3733 952 3734 951 3731
8 921 3675 922 3735 953 3736 952 3733
8 922 3677 923 3737 954 3738 953 3735
8 923 3679 924 3739 955 3740 954 3737
8 924 3681 925 3741 956 3742 955 3739
8 925 3683 926 3743 957 3744 956 3741
8 926 3685 927 3745 958 3746 957 3743
8 927 3687 928 3747 959 3748 958 3745
8 928 3689 929 3749 960 3750 959 3747
8 930 3691 931 3751 962 3752 961 3753
8 931 3694 932 3754 963 3755 962 3751
8 932 3696 933 3756 964 3757 963 3754
8 933 3698 934 3758 965 3759 964 3756
8 934 3700 935 3760 966 3761 965 3758
8 935 3702 936 3762 967 3763 966 3760
8 936 3704 937 3764 968 3765 967 3762
8 937 3706 938 3766 969 3767 968 3764
8 938 3708 939 3768 970 3769 969 3766
8 939 3710 940 3770 971 3771 970 3768
8 940 3712 941 3772 972 3773 971 3770
8 941 3714 942 3774 973 3775 972 3772
8 942 3716 943 3776 974 3777 973 3774
8 943 3718 944 3778 975 3779 974 3776
8 944 3720 945 3780 976 3781 975 3778
8 945 3722 946 3782 977 3783 976 3780
8 946 3724 947 3784 978 3785 977 3782
8 947 3726 948 3786 979 3787 978 3784
8 948 3728 949 3788 980 3789 979 3786
8 949 3730 950 3790 981 3791 980 3788
8 950 3732 951 3792 982 3793 981 3790
8 951 3734 952 3794 983 3795 982 3792
8 952 3736 953 3796 984 3797 983 3794
8 953 3738 954 3798 985 3799 984 3796
8 954 3740 955 3800 986 3801 985 3798
8 955 3742 956 3802 987 3803 986 3800
8 956 3744 957 3804 988 3805 987 3802
8 957 3746 958 3806 989 3807 988 3804
8 958 3748 959 3808 990 3809 989 3806
8 959 3750 960 3810 991 3811 990 3808
8 961 3752 962 3812 993 3813 992 3814
8 962 3755 963 3815 994 3816 993 3812
8 963 3757 964 3817 995 3818 994 3815
8 964 3759 965 3819 996 3820 995 3817
8 965 3761 966 3821 997 3822 996 3819
8 966 3763 967 3823 998 3824 997 3821
8 967 3765 968 3825 999 3826 998 3823
8 968 3767 969 3827 1000 3828 999 3825
8 969 3769 970 3829 1001 3830 1000 3827
8 970 3771 971 3831 1002 3832 1001 3829
8 971 3773 972 3833 1003 3834 1002 3831
8 972 3775 973 3835 1004 3836 1003 3833
8 973 3777 974 3837 1005 3838 1004 3835
8 974 3779 975 3839 1006 3840 1005 3837
8 975 3781 976 3841 1007 3842 1006 3839
8 976 3783 977 3843 1008 3844 1007 3841
8 977 3785 978 3845 1009 3846 1008 3843
8 978 3787 979 3847 1010 3848 1009 3845
8 979 3789 980 3849 1011 3850 1010 3847
8 980 3791 981 3851 1012 3852 1011 3849
8 981 3793 982 3853 1013 3854 1012 3851
8 982 3795 983 3855 1014 3856 1013 3853
8 983 3797 984 3857 1015 3858 1014 3855
8 984 3799 985 3859 1016 3860 1015 3857
8 985 3801 986 3861 1017 3862 1016 3859
8 986 3803 987 3863 1018 3864 1017 3861
8 987 3805 988 3865 1019 3866 1018 3863
8 988 3807 989 3867 1020 3868 1019 3865
8 989 3809 990 3869 1021 3870 1020 3867
8 990 3811 991 3871 1022 3872 1021 3869
8 992 3813 993 3873 1024 3874 1023 3875
8 993 3816 994 3876 1025 3877 1024 3873
8 994 3818 995 3878 1026 3879 1025 3876
8 995 3820 996 3880 1027 3881 1026 3878
8 996 3822 997 3882 1028 3883 1027 3880
8 997 3824 998 3884 1029 3885 1028 3882
8 998 3826 999 3886 1030 3887 1029 3884
8 999 3828 1000 3888 1031 3889 1030 3886
8 1000 3830 1001 3890 1032 3891 1031 3888
8 1001 3832 1002 3892 1033 3893 1032 3890
8 1002 3834 1003 3894 1034 3895 1033 3892
8 1003 3836 1004 3896 1035 3897 1034 3894
8 1004 3838 1005 3898 1036 3899 1035 3896
8 1005 3840 1006 3900 1037 3901 1036 3898
8 1006 3842 1007 3902 1038 3903 1037 3900
8 1007 3844 1008 3904 1039 3905 1038 3902
8 1008 3846 1009 3906 1040 3907 1039 3904
8 1009 3848 1010 3908 1041 3909 1040 3906
8 1010 3850 1011 3910 1042 3911 1041 3908
8 1011 3852 1012 3912 1043 3913 1042 3910
8 1012 3854 1013 3914 1044 3915 1043 3912
8 1013 3856 1014 3916 1045 3917 1044 3914
8 1014 3858 1015 3918 1046 3919 1045 3916
8 1015 3860 1016 3920 1047 3921 1046 3918
8 1016 3862 1017 3922 1048 3923 1047 3920
8 1017 3864 1018 3924 1049 3925 1048 3922
8 1018 3866 1019 3926 1050 3927 1049 3924
8 1019 3868 1020 3928 1051 3929 1050 3926
8 1020 3870 1021 3930 1052 3931 1051 3928
8 1021 3872 1022 3932 1053 3933 1052 3930
8 1023 3874 1024 3934 1055 3935 1054 3936
8 1024 3877 1025 3937 1056 3938 1055 3934
8 1025 3879 1026 3939 1057 3940 1056 3937
8 1026 3881 1027 3941 1058 3942 1057 3939
8 1027 3883 1028 3943 1059 3944 1058 3941
8 1028 3885 1029 3945 1060 3946 1059 3943
8 1029 3887 1030 3947 1061 3948 1060 3945
8 1030 3889 1031 3949 1062 3950 1061 3947
8 1031 3891 1032 3951 1063 3952 1062 3949
8 1032 3893 1033 3953 1064 3954 1063 3951
8 1033 3895 1034 3955 1065 3956 1064 3953
8 1034 3897 1035 3957 1066 3958 1065 3955
8 1035 3899 1036 3959 1067 3960 1066 3957
8 1036 3901 1037 3961 1068 3962 1067 3959
8 1037 3903 1038 3963 1069 3964 1068 3961
8 1038 3905 1039 3965 1070 3966 1069 3963
8 1039 3907 1040 3967 1071 3968 1070 3965
8 1040 3909 1041 3969 1072 3970 1071 3967
8 1041 3911 1042 3971 1073 3972 1072 3969
8 1042 3913 1043 3973 1074 3974 1073 3971
8 1043 3915 1044 3975 1075 3976 1074 3973
8 1044 3917 1045 3977 1076 3978 1075 3975
8 1045 3919 1046 3979 1077 3980 1076 3977
8 1046 3921 1047 3981 1078 3982 1077 3979
8 1047 3923 1048 3983 1079 3984 1078 3981
8 1048 3925 1049 3985 1080 3986 1079 3983
8 1049 3927 1050 3987 1081 3988 1080 3985
8 1050 3929 1051 3989 1082 3990 1081 3987
8 1051 3931 1052 3991 1083 3992 1082 3989
8 1052 3933 1053 3993 1084 3994 1083 3991
8 1054 3935 1055 3995 1086 3996 1085 3997
8 1055 3938 1056 3998 1087 3999 1086 3995
8 1056 3940 1057 4000 1088 4001 1087 3998
8 1057 3942 1058 4002 1089 4003 1088 4000
8 1058 3944 1059 4004 1090 4005 1089 4002
8 1059 3946 1060 4006 1091 4007 1090 4004
8 1060 3948 1061 4008 1092 4009 1091 4006
8 1061 3950 1062 4010 1093 4011 1092 4008
8 1062 3952 1063 4012 1094 4013 1093 4010
8 1063 3954 1064 4014 1095 4015 1094 4012
8 1064 3956 1065 4016 1096 4017 1095 4014
8 1065 3958 1066 4018 1097 4019 1096 4016
8 1066 3960 1067 4020 1098 4021 1097 4018
8 1067 3962 1068 4022 1099 4023 1098 4020
8 1068 3964 1069 4024 1100 4025 1099 4022
8 1069 3966 1070 4026 1101 4027 1100 4024
8 1070 3968 1071 4028 1102 4029 1101 4026
8 1071 3970 1072 4030 1103 4031 1102 4028
8 1072 3972 1073 4032 1104 4033 1103 4030
8 1073 3974 1074 4034 1105 4035 1104 4032
8 1074 3976 1075 4036 1106 4037 1105 4034
8 1075 3978 1076 4038 1107 4039 1106 4036
8 1076 3980 1077 4040 1108 4041 1107 4038
8 1077 3982 1078 4042 1109 4043 1108 4040
8 1078 3984 1079 4044 1110 4045 1109 4042
8 1079 3986 1080 4046 1111 4047 1110 4044
8 1080 3988 1081 4048 1112 4049 1111 4046
8 1081 3990 1082 4050 1113 4051 1112 4048
8 1082 3992 1083 4052 1114 4053 1113 4050
8 1083 3994 1084 4054 1115 4055 1114 4052
8 1085 3996 1086 4056 1117 4057 1116 4058
8 1086 3999 1087 4059 1118 4060 1117 4056
8 1087 4001 1088 4061 1119 4062 1118 4059
8 1088 4003 1089 4063 1120 4064 1119 4061
8 1089 4005 1090 4065 1121 4066 1120 4063
8 1090 4007 1091 4067 1122 4068 1121 4065
8 1091 4009 1092 4069 1123 4070 1122 4067
8 1092 4011 1093 4071 1124 4072 1123 4069
8 1093 4013 1094 4073 1125 4074 1124 4071
8 1094 4015 1095 4075 1126 4076 1125 4073
8 1095 4017 1096 4077 1127 4078 1126 4075
8 1096 4019 1097 4079 1128 4080 1127 4077
8 1097 4021 1098 4081 1129 4082 1128 4079
8 1098 4023 1099 4083 1130 4084 1129 4081
8 1099 4025 1100 4085 1131 4086 1130 4083
8 1100 4027 1101 4087 1132 4088 1131 4085
8 1101 4029 1102 4089 1133 4090 1132 4087
8 1102 4031 1103 4091 1134 4092 1133 4089
8 1103 4033 1104 4093 1135 4094 1134 4091
8 1104 4035 1105 4095 1136 4096 1135 4093
8 1105 4037 1106 4097 1137 4098 1136 4095
8 1106 4039 1107 4099 1138 4100 1137 4097
8 1107 4041 1108 4101 1139 4102 1138 4099
8 1108 4043 1109 4103 1140 4104 1139 4101
8 1109 4045 1110 4105 1141 4106 1140 4103
8 1110 4047 1111 4107 1142 4108 1141 4105
8 1111 4049 1112 4109 1143 4110 1142 4107
8 1112 4051 1113 4111 1144 4112 1143 4109
8 1113 4053 1114 4113 1145 4114 1144 4111
8 1114 4055 1115 4115 1146 4116 1145 4113
8 1116 4057 1117 4117 1148 4118 1147 4119
8 1117 4060 1118 4120 1149 4121 1148 4117
8 1118 4062 1119 4122 1150 4123 1149 4120
8 1119 4064 1120 4124 1151 4125 1150 4122
8 1120 4066 1121 4126 1152 4127 1151 4124
8 1121 4068 1122 4128 1153 4129 1152 4126
8 1122 4070 1123 4130 1154 4131 1153 4128
8 1123 4072 1124 4132 1155 4133 1154 4130
8 1124 4074 1125 4134 1156 4135 1155 4132
8 1125 4076 1126 4136 1157 4137 1156 4134
8 1126 4078 1127 4138 1158 4139 1157 4136
8 1127 4080 1128 4140 1159 4141 1158 4138
8 1128 4082 1129 4142 1160 4143 1159 4140
8 1129 4084 1130 4144 1161 4145 1160 4142
8 1130 4086 1131 4146 1162 4147 1161 4144
8 1131 4088 1132 4148 1163 4149 1162 4146
8 1132 4090 1133 4150 1164 4151 1163 4148
8 1133 4092 1134 4152 1165 4153 1164 4150
8 1134 4094 1135 4154 1166 4155 1165 4152
8 1135 4096 1136 4156 1167 4157 1166 4154
8 1136 4098 1137 4158 1168 4159 1167 4156
8 1137 4100 1138 4160 1169 4161 1168 4158
8 1138 4102 1139 4162 1170 4163 1169 4160
8 1139 4104 1140 4164 1171 4165 1170 4162
8 1140 4106 1141 4166 1172 4167 1171 4164
8 1141 4108 1142 4168 1173 4169 1172 4166
8 1142 4110 1143 4170 1174 4171 1173 4168
8 1143 4112 1144 4172 1175 4173 1174 4170
8 1144 4114 1145 4174 1176 4175 1175 4172
8 1145 4116 1146 4176 1177 4177 1176 4174
8 1147 4118 1148 4178 1179 4179 1178 4180
8 1148 4121 1149 4181 1180 4182 1179 4178
8 1149 4123 1150 4183 1181 4184 1180 4181
8 1150 4125 1151 4185 1182 4186 1181 4183
8 1151 4127 1152 4187 1183 4188 1182 4185
8 1152 4129 1153 4189 1184 4190 1183 4187
8 1153 4131 1154 4191 1185 4192 1184 4189
8 1154 4133 1155 4193 1186 4194 1185 4191
8 1155 4135 1156 4195 1187 4196 1186 4193
8 1156 4137 1157 4197 1188 4198 1187 4195
8 1157 4139 1158 4199 1189 4200 1188 4197
8 1158 4141 1159 4201 1190 4202 1189 4199
8 1159 4143 1160 4203 1191 4204 1190 4201
8 1160 4145 1161 4205 1192 4206 1191 4203
8 1161 4147 1162 4207 1193 4208 1192 4205
8 1162 4149 1163 4209 1194 4210 1193 4207
8 1163 4151 1164 4211 1195 4212 1194 4209
8 1164 4153 1165 4213 1196 4214 1195 4211
8 1165 4155 1166 4215 1197 4216 1196 4213
8 1166 4157 1167 4217 1198 4218 1197 4215
8 1167 4159 1168 4219 1199 4220 1198 4217
8 1168 4161 1169 4221 1200 4222 1199 4219
8 1169 4163 1170 4223 1201 4224 1200 4221
8 1170 4165 1171 4225 1202 4226 1201 4223
8 1171 4167 1172 4227 1203 4228 1202 4225
8 1172 4169 1173 4229 1204 4230 1203 4227
8 1173 4171 1174 4231 1205 4232 1204 4229
8 1174 4173 1175 4233 1206 4234 1205 4231
8 1175 4175 1176 4235 1207 4236 1206 4233
8 1176 4177 1177 4237 1208 4238 1207 4235
8 1178 4179 1179 4239 1210 4240 1209 4241
8 1179 4182 1180 4242 1211 4243 1210 4239
8 1180 4184 1181 4244 1212 4245 1211 4242
8 1181 4186 1182 4246 1213 4247 1212 4244
8 1182 4188 1183 4248 1214 4249 1213 4246
8 1183 4190 1184 4250 1215 4251 1214 4248
8 1184 4192 1185 4252 1216 4253 1215 4250
8 1185 4194 1186 4254 1217 4255 1216 4252
8 1186 4196 1187 4256 1218 4257 1217 4254
8 1187 4198 1188 4258 1219 4259 1218 4256
8 1188 4200 1189 4260 1220 4261 1219 4258
8 1189 4202 1190 4262 1221 4263 1220 4260
8 1190 4204 1191 4264 1222 4265 1221 4262
8 1191 4206 1192 4266 1223 4267 1222 4264
8 1192 4208 1193 4268 1224 4269 1223 4266
8 1193 4210 1194 4270 1225 4271 1224 4268
8 1194 4212 1195 4272 1226 4273 1225 4270
8 1195 4214 1196 4274 1227 4275 1226 4272
8 1196 4216 1197 4276 1228 4277 1227 4274
8 1197 4218 1198 4278 1229 4279 1228 4276
8 1198 4220 1199 4280 1230 4281 1229 4278
8 1199 4222 1200 4282 1231 4283 1230 4280
8 1200 4224 1201 4284 1232 4285 1231 4282
8 1201 4226 1202 4286 1233 4287 1232 4284
8 1202 4228 1203 4288 1234 4289 1233 4286
8 1203 4230 1204 4290 1235 4291 1234 4288
8 1204 4232 1205 4292 1236 4293 1235 4290
8 1205 4234 1206 4294 1237 4295 1236 4292
8 1206 4236 1207 4296 1238 4297 1237 4294
8 1207 4238 1208 4298 1239 4299 1238 4296
8 1209 4240 1210 4300 1241 4301 1240 4302
8 1210 4243 1211 4303 1242 4304 1241 4300
8 1211 4245 1212 4305 1243 4306 1242 4303
8 1212 4247 1213 4307 1244 4308 1243 4305
8 1213 4249 1214 4309 1245 4310 1244 4307
8 1214 4251 1215 4311 1246 4312 1245 4309
8 1215 4253 1216 4313 1247 4314 1246 4311
8 1216 4255 1217 4315 1248 4316 1247 4313
8 1217 4257 1218 4317 1249 4318 1248 4315
8 1218 4259 1219 4319 1250 4320 1249 4317
8 1219 4261 1220 4321 1251 4322 1250 4319
8 1220 4263 1221 4323 1252 4324 1251 4321
8 1221 4265 1222 4325 1253 4326 1252 4323
8 1222 4267 1223 4327 1254 4328 1253 4325
8 1223 4269 1224 4329 1255 4330 1254 4327
8 1224 4271 1225 4331 1256 4332 1255 4329
8 1225 4273 1226 4333 1257 4334 1256 4331
8 1226 4275 1227 4335 1258 4336 1257 4333
8 1227 4277 1228 4337 1259 4338 1258 4335
8 1228 4279 1229 4339 1260 4340 1259 4337
8 1229 4281 1230 4341 1261 4342 1260 4339
8 1230 4283 1231 4343 1262 4344 1261 4341
8 1231 4285 1232 4345 1263 4346 1262 4343
8 1232 4287 1233 4347 1264 4348 1263 4345
8 1233 4289 1234 4349 1265 4350 1264 4347
8 1234 4291 1235 4351 1266 4352 1265 4349
8 1235 4293 1236 4353 1267 4354 1266 4351
8 1236 4295 1237 4355 1268 4356 1267 4353
8 1237 4297 1238 4357 1269 4358 1268 4355
8 1238 4299 1239 4359 1270 4360 1269 4357
8 1240 4301 1241 4361 1272 4362 1271 4363
8 1241 4304 1242 4364 1273 4365 1272 4361
8 1242 4306 1243 4366 1274 4367 1273 4364
8 1243 4308 1244 4368 1275 4369 1274 4366
8 1244 4310 1245 4370 1276 4371 1275 4368
8 1245 4312 1246 4372 1277 4373 1276 4370
8 1246 4314 1247 4374 1278 4375 1277 4372
8 1247 4316 1248 4376 1279 4377 1278 4374
8 1248 4318 1249 4378 1280 4379 1279 4376
8 1249 4320 1250 4380 1281 4381 1280 4378
8 1250 4322 1251 4382 1282 4383 1281 4380
8 1251 4324 1252 4384 1283 4385 1282 4382
8 1252 4326 1253 4386 1284 4387 1283 4384
8 1253 4328 1254 4388 1285 4389 1284 4386
8 1254 4330 1255 4390 1286 4391 1285 4388
8 1255 4332 1256 4392 1287 4393 1286 4390
8 1256 4334 1257 4394 1288 4395 1287 4392
8 1257 4336 1258 4396 1289 4397 1288 4394
8 1258 4338 1259 4398 1290 4399 1289 4396
8 1259 4340 1260 4400 1291 4401 1290 4398
8 1260 4342 1261 4402 1292 4403 1291 4400
8 1261 4344 1262 4404 1293 4405 1292 4402
8 1262 4346 1263 4406 1294 4407 1293 4404
8 1263 4348 1264 4408 1295 4409 1294 4406
8 1264 4350 1265 4410 1296 4411 1295 4408
8 1265 4352 1266 4412 1297 4413 1296 4410
8 1266 4354 1267 4414 1298 4415 1297 4412
8 1267 4356 1268 4416 1299 4417 1298 4414
8 1268 4358 1269 4418 1300 4419 1299 4416
8 1269 4360 1270 4420 1301 4421 1300 4418
8 1271 4362 1272 4422 1303 4423 1302 4424
8 1272 4365 1273 4425 1304 4426 1303 4422
8 1273 4367 1274 4427 1305 4428 1304 4425
8 1274 4369 1275 4429 1306 4430 1305 4427
8 1275 4371 1276 4431 1307 4432 1306 4429
8 1276 4373 1277 4433 1308 4434 1307 4431
8 1277 4375 1278 4435 1309 4436 1308 4433
8 1278 4377 1279 4437 1310 4438 1309 4435
8 1279 4379 1280 4439 1311 4440 1310 4437
8 1280 4381 1281 4441 1312 4442 1311 4439
8 1281 4383 1282 4443 1313 4444 1312 4441
8 1282 4385 1283 4445 1314 4446 1313 4443
8 1283 4387 1284 4447 1315 4448 1314 4445
8 1284 4389 1285 4449 1316 4450 1315 4447
8 1285 4391 1286 4451 1317 4452 1316 4449
8 1286 4393 1287 4453 1318 4454 1317 4451
8 1287 4395 1288 4455 1319 4456 1318 4453
8 1288 4397 1289 4457 1320 4458 1319 4455
8 1289 4399 1290 4459 1321 4460 1320 4457
8 1290 4401 1291 4461 1322 4462 1321 4459
8 1291 4403 1292 4463 1323 4464 1322 4461
8 1292 4405 1293 4465 1324 4466 1323 4463
8 1293 4407 1294 4467 1325 4468 1324 4465
8 1294 4409 1295 4469 1326 4470 1325 4467
8 1295 4411 1296 4471 1327 4472 1326 4469
8 1296 4413 1297 4473 1328 4474 1327 4471
8 1297 4415 1298 4475 1329 4476 1328 4473
8 1298 4417 1299 4477 1330 4478 1329 4475
8 1299 4419 1300 4479 1331 4480 1330 4477
8 1300 4421 1301 4481 1332 4482 1331 4479
8 1302 4423 1303 4483 1334 4484 1333 4485
8 1303 4426 1304 4486 1335 4487 1334 4483
8 1304 4428 1305 4488 1336 4489 1335 4486
8 1305 4430 1306 4490 1337 4491 1336 4488
8 1306 4432 1307 4492 1338 4493 1337 4490
8 1307 4434 1308 4494 1339 4495 1338 4492
8 1308 4436 1309 4496 1340 4497 1339 4494
8 1309 4438 1310 4498 1341 4499 1340 4496
8 1310 4440 1311 4500 1342 4501 1341 4498
8 1311 4442 1312 4502 1343 4503 1342 4500
8 1312 4444 1313 4504 1344 4505 1343 4502
8 1313 4446 1314 4506 1345 4507 1344 4504
8 1314 4448 1315 4508 1346 4509 1345 4506
8 1315 4450 1316 4510 1347 4511 1346 4508
8 1316 4452 1317 4512 1348 4513 1347 4510
8 1317 4454 1318 4514 1349 4515 1348 4512
8 1318 4456 1319 4516 1350 4517 1349 4514
8 1319 4458 1320 4518 1351 4519 1350 4516
8 1320 4460 1321 4520 1352 4521 1351 4518
8 1321 4462 1322 4522 1353 4523 1352 4520
8 1322 4464 1323 4524 1354 4525 1353 4522
8 1323 4466 1324 4526 1355 4527 1354 4524
8 1324 4468 1325 4528 1356 4529 1355 4526
8 1325 4470 1326 4530 1357 4531 1356 4528
8 1326 4472 1327 4532 1358 4533 1357 4530
8 1327 4474 1328 4534 1359 4535 1358 4532
8 1328 4476 1329 4536 1360 4537 1359 4534
8 1329 4478 1330 4538 1361 4539 1360 4536
8 1330 4480 1331 4540 1362 4541 1361 4538
8 1331 4482 1332 4542 1363 4543 1362 4540
8 1333 4484 1334 4544 1365 4545 1364 4546
8 1334 4487 1335 4547 1366 4548 1365 4544
8 1335 4489 1336 4549 1367 4550 1366 4547
8 1336 4491 1337 4551 1368 4552 1367 4549
8 1337 4493 1338 4553 1369 4554 1368 4551
8 1338 4495 1339 4555 1370 4556 1369 4553
8 1339 4497 1340 4557 1371 4558 1370 4555
8 1340 4499 1341 4559 1372 4560 1371 4557
8 1341 4501 1342 4561 1373 4562 1372 4559
8 1342 4503 1343 4563 1374 4564 1373 4561
8 1343 4505 1344 4565 1375 4566 1374 4563
8 1344 4507 1345 4567 1376 4568 1375 4565
8 1345 4509 1346 4569 1377 4570 1376 4567
8 1346 4511 1347 4571 1378 4572 1377 4569
8 1347 4513 1348 4573 1379 4574 1378 4571
8 1348 4515 1349 4575 1380 4576 1379 4573
8 1349 4517 1350 4577 1381 4578 1380 4575
8 1350 4519 1351 4579 1382 4580 1381 4577
8 1351 4521 1352 4581 1383 4582 1382 4579
8 1352 4523 1353 4583 1384 4584 1383 4581
8 1353 4525 1354 4585 1385 4586 1384 4583
8 1354 4527 1355 4587 1386 4588 1385 4585
8 1355 4529 1356 4589 1387 4590 1386 4587
8 1356 4531 1357 4591 1388 4592 1387 4589
8 1357 4533 1358 4593 1389 4594 1388 4591
8 1358 4535 1359 4595 1390 4596 1389 4593
8 1359 4537 1360 4597 1391 4598 1390 4595
8 1360 4539 1361 4599 1392 4600 1391 4597
8 1361 4541 1362 4601 1393 4602 1392 4599
8 1362 4543 1363 4603 1394 4604 1393 4601
8 1364 4545 1365 4605 1396 4606 1395 4607
8 1365 4548 1366 4608 1397 4609 1396 4605
8 1366 4550 1367 4610 1398 4611 1397 4608
8 1367 4552 1368 4612 1399 4613 1398 4610
8 1368 4554 1369 4614 1400 4615 1399 4612
8 1369 4556 1370 4616 1401 4617 1400 4614
8 1370 4558 1371 4618 1402 4619 1401 4616
8 1371 4560 1372 4620 1403 4621 1402 4618
8 1372 4562 1373 4622 1404 4623 1403 4620
8 1373 4564 1374 4624 1405 4625 1404 4622
8 1374 4566 1375 4626 1406 4627 1405 4624
8 1375 4568 1376 4628 1407 4629 1406 4626
8 1376 4570 1377 4630 1408 4631 1407 4628
8 1377 4572 1378 4632 1409 4633 1408 4630
8 1378 4574 1379 4634 1410 4635 1409 4632
8 1379 4576 1380 4636 1411 4637 1410 4634
8 1380 4578 1381 4638 1412 4639 1411 4636
8 1381 4580 1382 4640 1413 4641 1412 4638
8 1382 4582 1383 4642 1414 4643 1413 4640
8 1383 4584 1384 4644 1415 4645 1414 4642
8 1384 4586 1385 4646 1416 4647 1415 4644
8 1385 4588 1386 4648 1417 4649 1416 4646
8 1386 4590 1387 4650 1418 4651 1417 4648
8 1387 4592 1388 4652 1419 4653 1418 4650
8 1388 4594 1389 4654 1420 4655 1419 4652
8 1389 4596 1390 4656 1421 4657 1420 4654
8 1390 4598 1391 4658 1422 4659 1421 4656
8 1391 4600 1392 4660 1423 4661 1422 4658
8 1392 4602 1393 4662 1424 4663 1423 4660
8 1393 4604 1394 4664 1425 4665 1424 4662
8 1395 4606 1396 4666 1427 4667 1426 4668
8 1396 4609 1397 4669 1428 4670 1427 4666
8 1397 4611 1398 4671 1429 4672 1428 4669
8 1398 4613 1399 4673 1430 4674 1429 4671
8 1399 4615 1400 4675 1431 4676 1430 4673
8 1400 4617 1401 4677 1432 4678 1431 4675
8 1401 4619 1402 4679 1433 4680 1432 4677
8 1402 4621 1403 4681 1434 4682 1433 4679
8 1403 4623 1404 4683 1435 4684 1434 4681
8 1404 4625 1405 4685 1436 4686 1435 4683
8 1405 4627 1406 4687 1437 4688 1436 4685
8 1406 4629 1407 4689 1438 4690 1437 4687
8 1407 4631 1408 4691 1439 4692 1438 4689
8 1408 4633 1409 4693 1440 4694 1439 4691
8 1409 4635 1410 4695 1441 4696 1440 4693
8 1410 4637 1411 4697 1442 4698 1441 4695
8 1411 4639 1412 4699 1443 4700 1442 4697
8 1412 4641 1413 4701 1444 4702 1443 4699
8 1413 4643 1414 4703 1445 4704 1444 4701
8 1414 4645 1415 4705 1446 4706 1445 4703
8 1415 4647 1416 4707 1447 4708 1446 4705
8 1416 4649 1417 4709 1448 4710 1447 4707
8 1417 4651 1418 4711 1449 4712 1448 4709
8 1418 4653 1419 4713 1450 4714 1449 4711
8 1419 4655 1420 4715 1451 4716 1450 4713
8 1420 4657 1421 4717 1452 4718 1451 4715
8 1421 4659 1422 4719 1453 4720 1452 4717
8 1422 4661 1423 4721 1454 4722 1453 4719
8 1423 4663 1424 4723 1455 4724 1454 4721
8 1424 4665 1425 4725 1456 4726 1455 4723
8 1426 4667 1427 4727 1458 4728 1457 4729
8 1427 4670 1428 4730 1459 4731 1458 4727
8 1428 4672 1429 4732 1460 4733 1459 4730
8 1429 4674 1430 4734 1461 4735 1460 4732
8 1430 4676 1431 4736 1462 4737 1461 4734
8 1431 4678 1432 4738 1463 4739 1462 4736
8 1432 4680 1433 4740 1464 4741 1463 4738
8 1433 4682 1434 4742 1465 4743 1464 4740
8 1434 4684 1435 4744 1466 4745 1465 4742
8 1435 4686 1436 4746 1467 4747 1466 4744
8 1436 4688 1437 4748 1468 4749 1467 4746
8 1437 4690 1438 4750 1469 4751 1468 4748
8 1438 4692 1439 4752 1470 4753 1469 4750
8 1439 4694 1440 4754 1471 4755 1470 4752
8 1440 4696 1441 4756 1472 4757 1471 4754
8 1441 4698 1442 4758 1473 4759 1472 4756
8 1442 4700 1443 4760 1474 4761 1473 4758
8 1443 4702 1444 4762 1475 4763 1474 4760
8 1444 4704 1445 4764 1476 4765 1475 4762
8 1445 4706 1446 4766 1477 4767 1476 4764
8 1446 4708 1447 4768 1478 4769 1477 4766
8 1447 4710 1448 4770 1479 4771 1478 4768
8 1448 4712 1449 4772 1480 4773 1479 4770
8 1449 4714 1450 4774 1481 4775 1480 4772
8 1450 4716 1451 4776 1482 4777 1481 4774
8 1451 4718 1452 4778 1483 4779 1482 4776
8 1452 4720 1453 4780 1484 4781 1483 4778
8 1453 4722 1454 4782 1485 4783 1484 4780
8 1454 4724 1455 4784 1486 4785 1485 4782
8 1455 4726 1456 4786 1487 4787 1486 4784
8 1457 4728 1458 4788 1489 4789 1488 4790
8 1458 4731 1459 4791 1490 4792 1489 4788
8 1459 4733 1460 4793 1491 4794 1490 4791
8 1460 4735 1461 4795 1492 4796 1491 4793
8 1461 4737 1462 4797 1493 4798 1492 4795
8 1462 4739 1463 4799 1494 4800 1493 4797
8 1463 4741 1464 4801 1495 4802 1494 4799
8 1464 4743 1465 4803 1496 4804 1495 4801
8 1465 4745 1466 4805 1497 4806 1496 4803
8 1466 4747 1467 4807 1498 4808 1497 4805
8 1467 4749 1468 4809 1499 4810 1498 4807
8 1468 4751 1469 4811 1500 4812 1499 4809
8 1469 4753 1470 4813 1501 4814 1500 4811
8 1470 4755 1471 4815 1502 4816 1501 4813
8 1471 4757 1472 4817 1503 4818 1502 4815
8 1472 4759 1473 4819 1504 4820 1503 4817
8 1473 4761 1474 4821 1505 4822 1504 4819
8 1474 4763 1475 4823 1506 4824 1505 4821
8 1475 4765 1476 4825 1507 4826 1506 4823
8 1476 4767 1477 4827 1508 4828 1507 4825
8 1477 4769 1478 4829 1509 4830 1508 4827
8 1478 4771 1479 4831 1510 4832 1509 4829
8 1479 4773 1480 4833 1511 4834 1510 4831
8 1480 4775 1481 4835 1512 4836 1511 4833
8 1481 4777 1482 4837 1513 4838 1512 4835
8 1482 4779 1483 4839 1514 4840 1513 4837
8 1483 4781 1484 4841 1515 4842 1514 4839
8 1484 4783 1485 4843 1516 4844 1515 4841
8 1485 4785 1486 4845 1517 4846 1516 4843
8 1486 4787 1487 4847 1518 4848 1517 4845
8 1488 4789 1489 4849 1520 4850 1519 4851
8 1489 4792 1490 4852 1521 4853 1520 4849
8 1490 4794 1491 4854 1522 4855 1521 4852
8 1491 4796 1492 4856 1523 4857 1522 4854
8 1492 4798 1493 4858 1524 4859 1523 4856
8 1493 4800 1494 4860 1525 4861 1524 4858
8 1494 4802 1495 4862 1526 4863 1525 4860
8 1495 4804 1496 4864 1527 4865 1526 4862
8 1496 4806 1497 4866 1528 4867 1527 4864
8 1497 4808 1498 4868 1529 4869 1528 4866
8 1498 4810 1499 4870 1530 4871 1529 4868
8 1499 4812 1500 4872 1531 4873 1530 4870
8 1500 4814 1501 4874 1532 4875 1531 4872
8 1501 4816 1502 4876 1533 4877 1532 4874
8 1502 4818 1503 4878 1534 4879 1533 4876
8 1503 4820 1504 4880 1535 4881 1534 4878
8 1504 4822 1505 4882 1536 4883 1535 4880
8 1505 4824 1506 4884 1537 4885 1536 4882
8 1506 4826 1507 4886 1538 4887 1537 4884
8 1507 4828 1508 4888 1539 4889 1538 4886
8 1508 4830 1509 4890 1540 4891 1539 4888
8 1509 4832 1510 4892 1541 4893 1540 4890
8 1510 4834 1511 4894 1542 4895 1541 4892
8 1511 4836 1512 4896 1543 4897 1542 4894
8 1512 4838 1513 4898 1544 4899 1543 4896
8 1513 4840 1514 4900 1545 4901 1544 4898
8 1514 4842 1515 4902 1546 4903 1545 4900
8 1515 4844 1516 4904 1547 4905 1546 4902
8 1516 4846 1517 4906 1548 4907 1547 4904
8 1517 4848 1518 4908 1549 4909 1548 4906
8 1519 4850 1520 4910 1551 4911 1550 4912
8 1520 4853 1521 4913 1552 4914 1551 4910
8 1521 4855 1522 4915 1553 4916 1552 4913
8 1522 4857 1523 4917 1554 4918 1553 4915
8 1523 4859 1524 4919 1555 4920 1554 4917
8 1524 4861 1525 4921 1556 4922 1555 4919
8 1525 4863 1526 4923 1557 4924 1556 4921
8 1526 4865 1527 4925 1558 4926 1557 4923
8 1527 4867 1528 4927 1559 4928 1558 4925
8 1528 4869 1529 4929 1560 4930 1559 4927
8 1529 4871 1530 4931 1561 4932 1560 4929
8 1530 4873 1531 4933 1562 4934 1561 4931
8 1531 4875 1532 4935 1563 4936 1562 4933
8 1532 4877 1533 4937 1564 4938 1563 4935
8 1533 4879 1534 4939 1565 4940 1564 4937
8 1534 4881 1535 4941 1566 4942 1565 4939
8 1535 4883 1536 4943 1567 4944 1566 4941
8 1536 4885 1537 4945 1568 4946 1567 4943
8 1537 4887 1538 4947 1569 4948 1568 4945
8 1538 4889 1539 4949 1570 4950 1569 4947
8 1539 4891 1540 4951 1571 4952 1570 4949
8 1540 4893 1541 4953 1572 4954 1571 4951
8 1541 4895 1542 4955 1573 4956 1572 4953
8 1542 4897 1543 4957 1574 4958 1573 4955
8 1543 4899 1544 4959 1575 4960 1574 4957
8 1544 4901 1545 4961 1576 4962 1575 4959
8 1545 4903 1546 4963 1577 4964 1576 4961
8 1546 4905 1547 4965 1578 4966 1577 4963
8 1547 4907 1548 4967 1579 4968 1578 4965
8 1548 4909 1549 4969 1580 4970 1579 4967
8 1550 4911 1551 4971 1582 4972 1581 4973
8 1551 4914 1552 4974 1583 4975 1582 4971
8 1552 4916 1553 4976 1584 4977 1583 4974
8 1553 4918 1554 4978 1585 4979 1584 4976
8 1554 4920 1555 4980 1586 4981 1585 4978
8 1555 4922 1556 4982 1587 4983 1586 4980
8 1556 4924 1557 4984 1588 4985 1587 4982
8 1557 4926 1558 4986 1589 4987 1588 4984
8 1558 4928 1559 4988 1590 4989 1589 4986
8 1559 4930 1560 4990 1591 4991 1590 4988
8 1560 4932 1561 4992 1592 4993 1591 4990
8 1561 4934 1562 4994 1593 4995 1592 4992
8 1562 4936 1563 4996 1594 4997 1593 4994
8 1563 4938 1564 4998 1595 4999 1594 4996
8 1564 4940 1565 5000 1596 5001 1595 4998
8 1565 4942 1566 5002 1597 5003 1596 5000
8 1566 4944 1567 5004 1598 5005 1597 5002
8 1567 4946 1568 5006 1599 5007 1598 5004
8 1568 4948 1569 5008 1600 5009 1599 5006
8 1569 4950 1570 5010 1601 5011 1600 5008
8 1570 4952 1571 5012 1602 5013 1601 5010
8 1571 4954 1572 5014 1603 5015 1602 5012
8 1572 4956 1573 5016 1604 5017 1603 5014
8 1573 4958 1574 5018 1605 5019 1604 5016
8 1574 4960 1575 5020 1606 5021 1605 5018
8 1575 4962 1576 5022 1607 5023 1606 5020
8 1576 4964 1577 5024 1608 5025 1607 5022
8 1577 4966 1578 5026 1609 5027 1608 5024
8 1578 4968 1579 5028 1610 5029 1609 5026
8 1579 4970 1580 5030 1611 5031 1610 5028
8 1581 4972 1582 5032 1613 5033 1612 5034
8 1582 4975 1583 5035 1614 5036 1613 5032
8 1583 4977 1584 5037 1615 5038 1614 5035
8 1584 4979 1585 5039 1616 5040 1615 5037
8 1585 4981 1586 5041 1617 5042 1616 5039
8 1586 4983 1587 5043 1618 5044 1617 5041
8 1587 4985 1588 5045 1619 5046 1618 5043
8 1588 4987 1589 5047 1620 5048 1619 5045
8 1589 4989 1590 5049 1621 5050 1620 5047
8 1590 4991 1591 5051 1622 5052 1621 5049
8 1591 4993 1592 5053 1623 5054 1622 5051
8 1592 4995 1593 5055 1624 5056 1623 5053
8 1593 4997 1594 5057 1625 5058 1624 5055
8 1594 4999 1595 5059 1626 5060 1625 5057
8 1595 5001 1596 5061 1627 5062 1626 5059
8 1596 5003 1597 5063 1628 5064 1627 5061
8 1597 5005 1598 5065 1629 5066 1628 5063
8 1598 5007 1599 5067 1630 5068 1629 5065
8 1599 5009 1600 5069 1631 5070 1630 5067
8 1600 5011 1601 5071 1632 5072 1631 5069
8 1601 5013 1602 5073 1633 5074 1632 5071
8 1602 5015 1603 5075 1634 5076 1633 5073
8 1603 5017 1604 5077 1635 5078 1634 5075
8 1604 5019 1605 5079 1636 5080 1635 5077
8 1605 5021 1606 5081 1637 5082 1636 5079
8 1606 5023 1607 5083 1638 5084 1637 5081
8 1607 5025 1608 5085 1639 5086 1638 5083
8 1608 5027 1609 5087 1640 5088 1639 5085
8 1609 5029 1610 5089 1641 5090 1640 5087
8 1610 5031 1611 5091 1642 5092 1641 5089
8 1612 5033 1613 5093 1644 5094 1643 5095
8 1613 5036 1614 5096 1645 5097 1644 5093
8 1614 5038 1615 5098 1646 5099 1645 5096
8 1615 5040 1616 5100 1647 5101 1646 5098
8 1616 5042 1617 5102 1648 5103 1647 5100
8 1617 5044 1618 5104 1649 5105 1648 5102
8 1618 5046 1619 5106 1650 5107 1649 5104
8 1619 5048 1620 5108 1651 5109 1650 5106
8 1620 5050 1621 5110 1652 5111 1651 5108
8 1621 5052 1622 5112 1653 5113 1652 5110
8 1622 5054 1623 5114 1654 5115 1653 5112
8 1623 5056 1624 5116 1655 5117 1654 5114
8 1624 5058 1625 5118 1656 5119 1655 5116
8 1625 5060 1626 5120 1657 5121 1656 5118
8 1626 5062 1627 5122 1658 5123 1657 5120
8 1627 5064 1628 5124 1659 5125 1658 5122
8 1628 5066 1629 5126 1660 5127 1659 5124
8 1629 5068 1630 5128 1661 5129 1660 5126
8 1630 5070 1631 5130 1662 5131 1661 5128
8 1631 5072 1632 5132 1663 5133 1662 5130
8 1632 5074 1633 5134 1664 5135 1663 5132
8 1633 5076 1634 5136 1665 5137 1664 5134
8 1634 5078 1635 5138 1666 5139 1665 5136
8 1635 5080 1636 5140 1667 5141 1666 5138
8 1636 5082 1637 5142 1668 5143 1667 5140
8 1637 5084 1638 5144 1669 5145 1668 5142
8 1638 5086 1639 5146 1670 5147 1669 5144
8 1639 5088 1640 5148 1671 5149 1670 5146
8 1640 5090 1641 5150 1672 5151 1671 5148
8 1641 5092 1642 5152 1673 5153 1672 5150
8 1643 5094 1644 5154 1675 5155 1674 5156
8 1644 5097 1645 5157 1676 5158 1675 5154
8 1645 5099 1646 5159 1677 5160 1676 5157
8 1646 5101 1647 5161 1678 5162 1677 5159
8 1647 5103 1648 5163 1679 5164 1678 5161
8 1648 5105 1649 5165 1680 5166 1679 5163
8 1649 5107 1650 5167 1681 5168 1680 5165
8 1650 5109 1651 5169 1682 5170 1681 5167
8 1651 5111 1652 5171 1683 5172 1682 5169
8 1652 5113 1653 5173 1684 5174 1683 5171
8 1653 5115 1654 5175 1685 5176 1684 5173
8 1654 5117 1655 5177 1686 5178 1685 5175
8 1655 5119 1656 5179 1687 5180 1686 5177
8 1656 5121 1657 5181 1688 5182 1687 5179
8 1657 5123 1658 5183 1689 5184 1688 5181
8 1658 5125 1659 5185 1690 5186 1689 5183
8 1659 5127 1660 5187 1691 5188 1690 5185
8 1660 5129 1661 5189 1692 5190 1691 5187
8 1661 5131 1662 5191 1693 5192 1692 5189
8 1662 5133 1663 5193 1694 5194 1693 5191
8 1663 5135 1664 5195 1695 5196 1694 5193
8 1664 5137 1665 5197 1696 5198 1695 5195
8 1665 5139 1666 5199 1697 5200 1696 5197
8 1666 5141 1667 5201 1698 5202 1697 5199
8 1667 5143 1668 5203 1699 5204 1698 5201
8 1668 5145 1669 5205 1700 5206 1699 5203
8 1669 5147 1670 5207 1701 5208 1700 5205
8 1670 5149 1671 5209 1702 5210 1701 5207
8 1671 5151 1672 5211 1703 5212 1702 5209
8 1672 5153 1673 5213 1704 5214 1703 5211
8 1674 5155 1675 5215 1706 5216 1705 5217
8 1675 5158 1676 5218 1707 5219 1706 5215
8 1676 5160 1677 5220 1708 5221 1707 5218
8 1677 5162 1678 5222 1709 5223 1708 5220
8 1678 5164 1679 5224 1710 5225 1709 5222
8 1679 5166 1680 5226 1711 5227 1710 5224
8 1680 5168 1681 5228 1712 5229 1711 5226
8 1681 5170 1682 5230 1713 5231 1712 5228
8 1682 5172 1683 5232 1714 5233 1713 5230
8 1683 5174 1684 5234 1715 5235 1714 5232
8 1684 5176 1685 5236 1716 5237 1715 5234
8 1685 5178 1686 5238 1717 5239 1716 5236
8 1686 5180 1687 5240 1718 5241 1717 5238
8 1687 5182 1688 5242 1719 5243 1718 5240
8 1688 5184 1689 5244 1720 5245 1719 5242
8 1689 5186 1690 5246 1721 5247 1720 5244
8 1690 5188 1691 5248 1722 5249 1721 5246
8 1691 5190 1692 5250 1723 5251 1722 5248
8 1692 5192 1693 5252 1724 5253 1723 5250
8 1693 5194 1694 5254 1725 5255 1724 5252
8 1694 5196 1695 5256 1726 5257 1725 5254
8 1695 5198 1696 5258 1727 5259 1726 5256
8 1696 5200 1697 5260 1728 5261 1727 5258
8 1697 5202 1698 5262 1729 5263 1728 5260
8 1698 5204 1699 5264 1730 5265 1729 5262
8 1699 5206 1700 5266 1731 5267 1730 5264
8 1700 5208 1701 5268 1732 5269 1731 5266
8 1701 5210 1702 5270 1733 5271 1732 5268
8 1702 5212 1703 5272 1734 5273 1733 5270
8 1703 5214 1704 5274 1735 5275 1734 5272
8 1705 5216 1706 5276 1737 5277 1736 5278
8 1706 5219 1707 5279 1738 5280 1737 5276
8 1707 5221 1708 5281 1739 5282 1738 5279
8 1708 5223 1709 5283 1740 5284 1739 5281
8 1709 5225 1710 5285 1741 5286 1740 5283
8 1710 5227 1711 5287 1742 5288 1741 5285
8 1711 5229 1712 5289 1743 5290 1742 5287
8 1712 5231 1713 5291 1744 5292 1743 5289
8 1713 5233 1714 5293 1745 5294 1744 5291
8 1714 5235 1715 5295 1746 5296 1745 5293
8 1715 5237 1716 5297 1747 5298 1746 5295
8 1716 5239 1717 5299 1748 5300 1747 5297
8 1717 5241 1718 5301 1749 5302 1748 5299
8 1718 5243 1719 5303 1750 5304 1749 5301
8 1719 5245 1720 5305 1751 5306 1750 5303
8 1720 5247 1721 5307 1752 5308 1751 5305
8 1721 5249 1722 5309 1753 5310 1752 5307
8 1722 5251 1723 5311 1754 5312 1753 5309
8 1723 5253 1724 5313 1755 5314 1754 5311
8 1724 5255 1725 5315 1756 5316 1755 5313
8 1725 5257 1726 5317 1757 5318 1756 5315
8 1726 5259 1727 5319 1758 5320 1757 5317
8 1727 5261 1728 5321 1759 5322 1758 5319
8 1728 5263 1729 5323 1760 5324 1759 5321
8 1729 5265 1730 5325 1761 5326 1760 5323
8 1730 5267 1731 5327 1762 5328 1761 5325
8 1731 5269 1732 5329 1763 5330 1762 5327
8 1732 5271 1733 5331 1764 5332 1763 5329
8 1733 5273 1734 5333 1765 5334 1764 5331
8 1734 5275 1735 5335 1766 5336 1765 5333
8 1736 5277 1737 5337 1768 5338 1767 5339
8 1737 5280 1738 5340 1769 5341 1768 5337
8 1738 5282 1739 5342 1770 5343 1769 5340
8 1739 5284 1740 5344 1771 5345 1770 5342
8 1740 5286 1741 5346 1772 5347 1771 5344
8 1741 5288 1742 5348 1773 5349 1772 5346
8 1742 5290 1743 5350 1774 5351 1773 5348
8 1743 5292 1744 5352 1775 5353 1774 5350
8 1744 5294 1745 5354 1776 5355 1775 5352
8 1745 5296 1746 5356 1777 5357 1776 5354
8 1746 5298 1747 5358 1778 5359 1777 5356
8 1747 5300 1748 5360 1779 5361 1778 5358
8 1748 5302 1749 5362 1780 5363 1779 5360
8 1749 5304 1750 5364 1781 5365 1780 5362
8 1750 5306 1751 5366 1782 5367 1781 5364
8 1751 5308 1752 5368 1783 5369 1782 5366
8 1752 5310 1753 5370 1784 5371 1783 5368
8 1753 5312 1754 5372 1785 5373 1784 5370
8 1754 5314 1755 5374 1786 5375 1785 5372
8 1755 5316 1756 5376 1787 5377 1786 5374
8 1756 5318 1757 5378 1788 5379 1787 5376
8 1757 5320 1758 5380 1789 5381 1788 5378
8 1758 5322 1759 5382 1790 5383 1789 5380
8 1759 5324 1760 5384 1791 5385 1790 5382
8 1760 5326 1761 5386 1792 5387 1791 5384
8 1761 5328 1762 5388 1793 5389 1792 5386
8 1762 5330 1763 5390 1794 5391 1793 5388
8 1763 5332 1764 5392 1795 5393 1794 5390
8 1764 5334 1765 5394 1796 5395 1795 5392
8 1765 5336 1766 5396 1797 5397 1796 5394
8 1767 5338 1768 5398 1799 5399 1798 5400
8 1768 5341 1769 5401 1800 5402 1799 5398
8 1769 5343 1770 5403 1801 5404 1800 5401
8 1770 5345 1771 5405 1802 5406 1801 5403
8 1771 5347 1772 5407 1803 5408 1802 5405
8 1772 5349 1773 5409 1804 5410 1803 5407
8 1773 5351 1774 5411 1805 5412 1804 5409
8 1774 5353 1775 5413 1806 5414 1805 5411
8 1775 5355 1776 5415 1807 5416 1806 5413
8 1776 5357 1777 5417 1808 5418 1807 5415
8 1777 5359 1778 5419 1809 5420 1808 5417
8 1778 5361 1779 5421 1810 5422 1809 5419
8 1779 5363 1780 5423 1811 5424 1810 5421
8 1780 5365 1781 5425 1812 5426 1811 5423
8 1781 5367 1782 5427 1813 5428 1812 5425
8 1782 5369 1783 5429 1814 5430 1813 5427
8 1783 5371 1784 5431 1815 5432 1814 5429
8 1784 5373 1785 5433 1816 5434 1815 5431
8 1785 5375 1786 5435 1817 5436 1816 5433
8 1786 5377 1787 5437 1818 5438 1817 5435
8 1787 5379 1788 5439 1819 5440 1818 5437
8 1788 5381 1789 5441 1820 5442 1819 5439
8 1789 5383 1790 5443 1821 5444 1820 5441
8 1790 5385 1791 5445 1822 5446 1821 5443
8 1791 5387 1792 5447 1823 5448 1822 5445
8 1792 5389 1793 5449 1824 5450 1823 5447
8 1793 5391 1794 5451 1825 5452 1824 5449
8 1794 5393 1795 5453 1826 5454 1825 5451
8 1795 5395 1796 5455 1827 5456 1826 5453
8 1796 5397 1797 5457 1828 5458 1827 5455
8 1798 5399 1799 5459 1830 5460 1829 5461
8 1799 5402 1800 5462 1831 5463 1830 5459
8 1800 5404 1801 5464 1832 5465 1831 5462
8 1801 5406 1802 5466 1833 5467 1832 5464
8 1802 5408 1803 5468 1834 5469 1833 5466
8 1803 5410 1804 5470 1835 5471 1834 5468
8 1804 5412 1805 5472 1836 5473 1835 5470
8 1805 5414 1806 5474 1837 5475 1836 5472
8 1806 5416 1807 5476 1838 5477 1837 5474
8 1807 5418 1808 5478 1839 5479 1838 5476
8 1808 5420 1809 5480 1840 5481 1839 5478
8 1809 5422 1810 5482 1841 5483 1840 5480
8 1810 5424 1811 5484 1842 5485 1841 5482
8 1811 5426 1812 5486 1843 5487 1842 5484
8 1812 5428 1813 5488 1844 5489 1843 5486
8 1813 5430 1814 5490 1845 5491 1844 5488
8 1814 5432 1815 5492 1846 5493 1845 5490
8 1815 5434 1816 5494 1847 5495 1846 5492
8 1816 5436 1817 5496 1848 5497 1847 5494
8 1817 5438 1818 5498 1849 5499 1848 5496
8 1818 5440 1819 5500 1850 5501 1849 5498
8 1819 5442 1820 5502 1851 5503 1850 5500
8 1820 5444 1821 5504 1852 5505 1851 5502
8 1821 5446 1822 5506 1853 5507 1852 5504
8 1822 5448 1823 5508 1854 5509 1853 5506
8 1823 5450 1824 5510 1855 5511 1854 5508
8 1824 5452 1825 5512 1856 5513 1855 5510
8 1825 5454 1826 5514 1857 5515 1856 5512
8 1826 5456 1827 5516 1858 5517 1857 5514
8 1827 5458 1828 5518 1859 5519 1858 5516
8 1829 5460 1830 5520 1861 5521 1860 5522
8 1830 5463 1831 5523 1862 5524 1861 5520
8 1831 5465 1832 5525 1863 5526 1862 5523
8 1832 5467 1833 5527 1864 5528 1863 5525
8 1833 5469 1834 5529 1865 5530 1864 5527
8 1834 5471 1835 5531 1866 5532 1865 5529
8 1835 5473 1836 5533 1867 5534 1866 5531
8 1836 5475 1837 5535 1868 5536 1867 5533
8 1837 5477 1838 5537 1869 5538 1868 5535
8 1838 5479 1839 5539 1870 5540 1869 5537
8 1839 5481 1840 5541 1871 5542 1870 5539
8 1840 5483 1841 5543 1872 5544 1871 5541
8 1841 5485 1842 5545 1873 5546 1872 5543
8 1842 5487 1843 5547 1874 5548 1873 5545
8 1843 5489 1844 5549 1875 5550 1874 5547
8 1844 5491 1845 5551 1876 5552 1875 5549
8 1845 5493 1846 5553 1877 5554 1876 5551
8 1846 5495 1847 5555 1878 5556 1877 5553
8 1847 5497 1848 5557 1879 5558 1878 5555
8 1848 5499 1849 5559 1880 5560 1879 5557
8 1849 5501 1850 5561 1881 5562 1880 5559
8 1850 5503 1851 5563 1882 5564 1881 5561
8 1851 5505 1852 5565 1883 5566 1882 5563
8 1852 5507 1853 5567 1884 5568 1883 5565
8 1853 5509 1854 5569 1885 5570 1884 5567
8 1854 5511 1855 5571 1886 5572 1885 5569
8 1855 5513 1856 5573 1887 5574 1886 5571
8 1856 5515 1857 5575 1888 5576 1887 5573
8 1857 5517 1858 5577 1889 5578 1888 5575
8 1858 5519 1859 5579 1890 5580 1889 5577
POINT_DATA 5581
VECTORS dis double
1.4861e-06 -7.2826e-07 0
1.4786e-06 -7.1262e-07 0
1.4715e-06 -6.9689e-07 0
1.4646e-06 -6.8103e-07 0
1.4581e-06 -6.65e-07 0
1.4518e-06 -6.4878e-07 0
1.4459e-06 -6.3239e-07 0
1.4403e-06 -6.1581e-07 0
1.4349e-06 -5.9904e-07 0
1.4299e-06 -5.8211e-07 0
1.4252e-06 -5.6502e-07 0
1.4208e-06 -5.4778e-07 0
1.4168e-06 -5.3041e-07 0
1.4131e-06 -5.1291e-07 0
1.4099e-06 -4.9531e-07 0
1.4071e-06 -4.7762e-07 0
1.4047e-06 -4.5986e-07 0
1.4028e-06 -4.4203e-07 0
1.4015e-06 -4.2416e-07 0
1.4008e-06 -4.0627e-07 0
1.4008e-06 -3.8835e-07 0
1.4014e-06 -3.7043e-07 0
1.4029e-06 -3.5252e-07 0
1.4053e-06 -3.3464e-07 0
1.4086e-06 -3.1677e-07 0
1.4131e-06 -2.9894e-07 0
1.4187e-06 -2.8113e-07 0
1.4257e-06 -2.6334e-07 0
1.4342e-06 -2.4554e-07 0
1.4445e-06 -2.277e-07 0
1.4566e-06 -2.0974e-07 0
1.4705e-06 -7.163e-07 0
1.463e-06 -7.0067e-07 0
1.4557e-06 -6.8495e-07 0
1.4487e-06 -6.6908e-07 0
1.442e-06 -6.5303e-07 0
1.4356e-06 -6.368e-07 0
1.4295e-06 -6.2037e-07 0
1.4237e-06 -6.0375e-07 0
1.4182e-06 -5.8695e-07 0
1.4131e-06 -5.6998e-07 0
1.4082e-06 -5.5283e-07 0
1.4037e-06 -5.3554e-07 0
1.3995e-06 -5.1811e-07 0
1.3958e-06 -5.0056e-07 0
1.3924e-06 -4.829e-07 0
1.3895e-06 -4.6515e-07 0
1.3871e-06 -4.4733e-07 0
1.3852e-06 -4.2944e-07 0
1.3838e-06 -4.1152e-07 0
1.3831e-06 -3.9356e-07 0
1.383e-06 -3.7559e-07 0
1.3837e-06 -3.5762e-07 0
1.3852e-06 -3.3966e-07 0
1.3875e-06 -3.2173e-07 0
1.3909e-06 -3.0382e-07 0
1.3953e-06 -2.8596e-07 0
1.401e-06 -2.6812e-07 0
1.408e-06 -2.5032e-07 0
1.4164e-06 -2.3251e-07 0
1.4266e-06 -2.1467e-07 0
1.4385e-06 -1.9672e-07 0
1.455e-06 -7.044e-07 0
1.4473e-06 -6.888e-07 0
1.4399e-06 -6.7308e-07 0
1.4329e-06 -6.572e-07 0
1.4261e-06 -6.4114e-07 0
1.4196e-06 -6.2488e-07 0
1.4133e-06 -6.0843e-07 0
1.4074e-06 -5.9178e-07 0
1.4018e-06 -5.7494e-07 0
1.3965e-06 -5.5792e-07 0
1.3915e-06 -5.4073e-07 0
1.3869e-06 -5.2339e-07 0
1.3826e-06 -5.0591e-07 0
1.3788e-06 -4.8831e-07 0
1.3753e-06 -4.706e-07 0
1.3723e-06 -4.528e-07 0
1.3699e-06 -4.3492e-07 0
1.3679e-06 -4.1698e-07 0
1.3665e-06 -3.99e-07 0
1.3657e-06 -3.8099e-07 0
1.3656e-06 -3.6297e-07 0
1.3662e-06 -3.4495e-07 0
1.3677e-06 -3.2695e-07 0
1.37e-06 -3.0897e-07 0
1.3734e-06 -2.9103e-07 0
1.3778e-06 -2.7313e-07 0
1.3834e-06 -2.5527e-07 0
1.3903e-06 -2.3745e-07 0
1.3987e-06 -2.1963e-07 0
1.4087e-06 -2.0179e-07 0
1.4205e-06 -1.8387e-07 0
1.4394e-06 -6.9257e-07 0
1.4317e-06 -6.7701e-07 0
1.4243e-06 -6.613e-07 0
1.4171e-06 -6.4541e-07 0
1.4102e-06 -6.2934e-07 0
1.4036e-06 -6.1305e-07 0
1.3973e-06 -5.9657e-07 0
1.3913e-06 -5.7989e-07 0
1.3855e-06 -5.6301e-07 0
1.3801e-06 -5.4595e-07 0
1.3751e-06 -5.2872e-07 0
1.3703e-06 -5.1134e-07 0
1.366e-06 -4.9381e-07 0
1.362e-06 -4.7616e-07 0
1.3585e-06 -4.584e-07 0
1.3555e-06 -4.4055e-07 0
1.3529e-06 -4.2262e-07 0
1.3509e-06 -4.0464e-07 0
1.3494e-06 -3.8661e-07 0
1.3486e-06 -3.6855e-07 0
1.3485e-06 -3.5048e-07 0
1.3491e-06 -3.3242e-07 0
1.3505e-06 -3.1437e-07 0
1.3528e-06 -2.9636e-07 0
1.3561e-06 -2.7838e-07 0
1.3604e-06 -2.6044e-07 0
1.3659e-06 -2.4255e-07 0
1.3728e-06 -2.2471e-07 0
1.381e-06 -2.0688e-07 0
1.3909e-06 -1.8906e-07 0
1.4026e-06 -1.712e-07 0
1.424e-06 -6.8082e-07 0
1.4162e-06 -6.6532e-07 0
1.4087e-06 -6.4963e-07 0
1.4015e-06 -6.3374e-07 0
1.3945e-06 -6.1764e-07 0
1.3878e-06 -6.0134e-07 0
1.3814e-06 -5.8482e-07 0
1.3753e-06 -5.681e-07 0
1.3695e-06 -5.5118e-07 0
1.364e-06 -5.3408e-07 0
1.3588e-06 -5.1681e-07 0
1.354e-06 -4.9938e-07 0
1.3496e-06 -4.8181e-07 0
1.3456e-06 -4.6412e-07 0
1.342e-06 -4.4631e-07 0
1.3389e-06 -4.2841e-07 0
1.3362e-06 -4.1044e-07 0
1.3341e-06 -3.9241e-07 0
1.3326e-06 -3.7433e-07 0
1.3317e-06 -3.5623e-07 0
1.3316e-06 -3.3811e-07 0
1.3321e-06 -3.2e-07 0
1.3335e-06 -3.0191e-07 0
1.3357e-06 -2.8385e-07 0
1.3389e-06 -2.6583e-07 0
1.3432e-06 -2.4786e-07 0
1.3486e-06 -2.2994e-07 0
1.3554e-06 -2.1208e-07 0
1.3635e-06 -1.9425e-07 0
1.3732e-06 -1.7645e-07 0
1.3847e-06 -1.5865e-07 0
1.4086e-06 -6.6919e-07 0
1.4008e-06 -6.5375e-07 0
1.3932e-06 -6.3808e-07 0
1.3859e-06 -6.2219e-07 0
1.3789e-06 -6.0607e-07 0
1.3722e-06 -5.8974e-07 0
1.3657e-06 -5.7318e-07 0
1.3595e-06 -5.5642e-07 0
1.3536e-06 -5.3946e-07 0
1.348e-06 -5.2232e-07 0
1.3428e-06 -5.05e-07 0
1.3379e-06 -4.8753e-07 0
1.3334e-06 -4.6992e-07 0
1.3293e-06 -4.5217e-07 0
1.3256e-06 -4.3432e-07 0
1.3224e-06 -4.1638e-07 0
1.3198e-06 -3.9836e-07 0
1.3176e-06 -3.8028e-07 0
1.316e-06 -3.6216e-07 0
1.3151e-06 -3.4401e-07 0
1.3148e-06 -3.2585e-07 0
1.3153e-06 -3.0769e-07 0
1.3166e-06 -2.8955e-07 0
1.3188e-06 -2.7145e-07 0
1.3219e-06 -2.5339e-07 0
1.3261e-06 -2.3538e-07 0
1.3315e-06 -2.1743e-07 0
1.3381e-06 -1.9954e-07 0
1.3461e-06 -1.8171e-07 0
1.3557e-06 -1.6393e-07 0
1.367e-06 -1.4621e-07 0
1.3933e-06 -6.577e-07 0
1.3854e-06 -6.4231e-07 0
1.3778e-06 -6.2666e-07 0
1.3705e-06 -6.1076e-07 0
1.3634e-06 -5.9463e-07 0
1.3566e-06 -5.7826e-07 0
1.3501e-06 -5.6167e-07 0
1.3438e-06 -5.4486e-07 0
1.3378e-06 -5.2786e-07 0
1.3322e-06 -5.1067e-07 0
1.3269e-06 -4.9331e-07 0
1.3219e-06 -4.7579e-07 0
1.3174e-06 -4.5812e-07 0
1.3132e-06 -4.4034e-07 0
1.3095e-06 -4.2244e-07 0
1.3062e-06 -4.0445e-07 0
1.3035e-06 -3.8638e-07 0
1.3012e-06 -3.6825e-07 0
1.2996e-06 -3.5008e-07 0
1.2986e-06 -3.3189e-07 0
1.2983e-06 -3.1368e-07 0
1.2987e-06 -2.9548e-07 0
1.2999e-06 -2.7729e-07 0
1.302e-06 -2.5914e-07 0
1.3051e-06 -2.4103e-07 0
1.3092e-06 -2.2298e-07 0
1.3144e-06 -2.0499e-07 0
1.3209e-06 -1.8708e-07 0
1.3288e-06 -1.6925e-07 0
1.3382e-06 -1.5149e-07 0
1.3493e-06 -1.3384e-07 0
1.3781e-06 -6.4636e-07 0
1.3702e-06 -6.3102e-07 0
1.3625e-06 -6.1538e-07 0
1.3551e-06 -5.9947e-07 0
1.348e-06 -5.8331e-07 0
1.3411e-06 -5.6691e-07 0
1.3345e-06 -5.5027e-07 0
1.3282e-06 -5.3342e-07 0
1.3222e-06 -5.1637e-07 0
1.3165e-06 -4.9913e-07 0
1.3111e-06 -4.8172e-07 0
1.3061e-06 -4.6415e-07 0
1.3014e-06 -4.4644e-07 0
1.2972e-06 -4.286e-07 0
1.2934e-06 -4.1065e-07 0
1.2901e-06 -3.9261e-07 0
1.2873e-06 -3.745e-07 0
1.285e-06 -3.5632e-07 0
1.2833e-06 -3.3811e-07 0
1.2823e-06 -3.1986e-07 0
1.2819e-06 -3.016e-07 0
1.2822e-06 -2.8335e-07 0
1.2834e-06 -2.6511e-07 0
1.2854e-06 -2.4691e-07 0
1.2883e-06 -2.2876e-07 0
1.2923e-06 -2.1066e-07 0
1.2975e-06 -1.9263e-07 0
1.3038e-06 -1.7469e-07 0
1.3115e-06 -1.5685e-07 0
1.3208e-06 -1.3911e-07 0
1.3318e-06 -1.2151e-07 0
1.3629e-06 -6.352e-07 0
1.355e-06 -6.1988e-07 0
1.3473e-06 -6.0425e-07 0
1.3399e-06 -5.8833e-07 0
1.3327e-06 -5.7213e-07 0
1.3258e-06 -5.5569e-07 0
1.3191e-06 -5.3901e-07 0
1.3127e-06 -5.2211e-07 0
1.3066e-06 -5.05e-07 0
1.3009e-06 -4.8771e-07 0
1.2954e-06 -4.7024e-07 0
1.2903e-06 -4.5262e-07 0
1.2856e-06 -4.3486e-07 0
1.2813e-06 -4.1697e-07 0
1.2775e-06 -3.9897e-07 0
1.2741e-06 -3.8088e-07 0
1.2712e-06 -3.6272e-07 0
1.2689e-06 -3.4449e-07 0
1.2671e-06 -3.2622e-07 0
1.266e-06 -3.0792e-07 0
1.2655e-06 -2.8961e-07 0
1.2658e-06 -2.7131e-07 0
1.2669e-06 -2.5302e-07 0
1.2688e-06 -2.3476e-07 0
1.2717e-06 -2.1655e-07 0
1.2756e-06 -1.9841e-07 0
1.2806e-06 -1.8034e-07 0
1.2868e-06 -1.6237e-07 0
1.2944e-06 -1.4451e-07 0
1.3035e-06 -1.2678e-07 0
1.3143e-06 -1.0921e-07 0
1.3478e-06 -6.2421e-07 0
1.3398e-06 -6.0891e-07 0
1.3321e-06 -5.9327e-07 0
1.3246e-06 -5.7733e-07 0
1.3174e-06 -5.611e-07 0
1.3104e-06 -5.446e-07 0
1.3037e-06 -5.2787e-07 0
1.2973e-06 -5.1092e-07 0
1.2911e-06 -4.9375e-07 0
1.2853e-06 -4.764e-07 0
1.2798e-06 -4.5888e-07 0
1.2746e-06 -4.412e-07 0
1.2699e-06 -4.2338e-07 0
1.2655e-06 -4.0544e-07 0
1.2616e-06 -3.8739e-07 0
1.2582e-06 -3.6924e-07 0
1.2552e-06 -3.5103e-07 0
1.2528e-06 -3.3275e-07 0
1.251e-06 -3.1443e-07 0
1.2498e-06 -2.9608e-07 0
1.2493e-06 -2.7771e-07 0
1.2495e-06 -2.5935e-07 0
1.2505e-06 -2.41e-07 0
1.2523e-06 -2.2269e-07 0
1.2551e-06 -2.0442e-07 0
1.2589e-06 -1.8622e-07 0
1.2638e-06 -1.6811e-07 0
1.2699e-06 -1.5009e-07 0
1.2773e-06 -1.322e-07 0
1.2862e-06 -1.1447e-07 0
1.2968e-06 -9.6916e-08 0
1.3327e-06 -6.1343e-07 0
1.3247e-06 -5.9812e-07 0
1.3169e-06 -5.8246e-07 0
1.3094e-06 -5.6648e-07 0
1.3021e-06 -5.502e-07 0
1.2951e-06 -5.3366e-07 0
1.2883e-06 -5.1686e-07 0
1.2818e-06 -4.9985e-07 0
1.2756e-06 -4.8262e-07 0
1.2698e-06 -4.6521e-07 0
1.2642e-06 -4.4762e-07 0
1.259e-06 -4.2988e-07 0
1.2542e-06 -4.1201e-07 0
1.2498e-06 -3.9401e-07 0
1.2458e-06 -3.759e-07 0
1.2423e-06 -3.577e-07 0
1.2393e-06 -3.3943e-07 0
1.2368e-06 -3.211e-07 0
1.2349e-06 -3.0272e-07 0
1.2336e-06 -2.8431e-07 0
1.2331e-06 -2.6589e-07 0
1.2332e-06 -2.4747e-07 0
1.2341e-06 -2.2906e-07 0
1.2359e-06 -2.1069e-07 0
1.2385e-06 -1.9236e-07 0
1.2422e-06 -1.741e-07 0
1.247e-06 -1.5593e-07 0
1.253e-06 -1.3786e-07 0
1.2603e-06 -1.1993e-07 0
1.269e-06 -1.0217e-07 0
1.2794e-06 -8.4618e-08 0
1.3175e-06 -6.0285e-07 0
1.3095e-06 -5.8752e-07 0
1.3017e-06 -5.7182e-07 0
1.2942e-06 -5.5579e-07 0
1.2869e-06 -5.3945e-07 0
1.2798e-06 -5.2284e-07 0
1.273e-06 -5.0599e-07 0
1.2664e-06 -4.889e-07 0
1.2602e-06 -4.7161e-07 0
1.2542e-06 -4.5413e-07 0
1.2486e-06 -4.3648e-07 0
1.2433e-06 -4.1868e-07 0
1.2385e-06 -4.0074e-07 0
1.234e-06 -3.8268e-07 0
1.2299e-06 -3.6451e-07 0
1.2264e-06 -3.4626e-07 0
1.2233e-06 -3.2793e-07 0
1.2208e-06 -3.0954e-07 0
1.2188e-06 -2.9111e-07 0
1.2175e-06 -2.7264e-07 0
1.2168e-06 -2.5415e-07 0
1.2169e-06 -2.3567e-07 0
1.2177e-06 -2.172e-07 0
1.2194e-06 -1.9876e-07 0
1.222e-06 -1.8036e-07 0
1.2256e-06 -1.6204e-07 0
1.2302e-06 -1.438e-07 0
1.2361e-06 -1.2567e-07 0
1.2432e-06 -1.0769e-07 0
1.2518e-06 -8.9887e-08 0
1.2619e-06 -7.2303e-08 0
1.3024e-06 -5.9249e-07 0
1.2944e-06 -5.7711e-07 0
1.2865e-06 -5.6135e-07 0
1.2789e-06 -5.4526e-07 0
1.2716e-06 -5.2885e-07 0
1.2645e-06 -5.1217e-07 0
1.2576e-06 -4.9524e-07 0
1.251e-06 -4.7808e-07 0
1.2447e-06 -4.6071e-07 0
1.2387e-06 -4.4316e-07 0
1.233e-06 -4.2544e-07 0
1.2276e-06 -4.0757e-07 0
1.2227e-06 -3.8957e-07 0
1.2182e-06 -3.7145e-07 0
1.2141e-06 -3.5322e-07 0
1.2104e-06 -3.3491e-07 0
1.2073e-06 -3.1652e-07 0
1.2047e-06 -2.9807e-07 0
1.2027e-06 -2.7958e-07 0
1.2013e-06 -2.6105e-07 0
1.2006e-06 -2.425e-07 0
1.2005e-06 -2.2395e-07 0
1.2013e-06 -2.0541e-07 0
1.2029e-06 -1.869e-07 0
1.2054e-06 -1.6843e-07 0
1.2089e-06 -1.5003e-07 0
1.2134e-06 -1.3172e-07 0
1.2191e-06 -1.1352e-07 0
1.2261e-06 -9.547e-08 0
1.2345e-06 -7.7603e-08 0
1.2444e-06 -5.9964e-08 0
1.2872e-06 -5.8234e-07 0
1.2791e-06 -5.6689e-07 0
1.2713e-06 -5.5106e-07 0
1.2637e-06 -5.3489e-07 0
1.2562e-06 -5.184e-07 0
1.2491e-06 -5.0164e-07 0
1.2421e-06 -4.8462e-07 0
1.2355e-06 -4.6738e-07 0
1.2291e-06 -4.4994e-07 0
1.223e-06 -4.3231e-07 0
1.2173e-06 -4.1451e-07 0
1.2119e-06 -3.9658e-07 0
1.2069e-06 -3.785e-07 0
1.2023e-06 -3.6032e-07 0
1.1981e-06 -3.4203e-07 0
1.1944e-06 -3.2366e-07 0
1.1912e-06 -3.0521e-07 0
1.1886e-06 -2.867e-07 0
1.1865e-06 -2.6814e-07 0
1.185e-06 -2.4955e-07 0
1.1842e-06 -2.3094e-07 0
1.1841e-06 -2.1232e-07 0
1.1848e-06 -1.937e-07 0
1.1863e-06 -1.7512e-07 0
1.1887e-06 -1.5657e-07 0
1.1921e-06 -1.3809e-07 0
1.1965e-06 -1.1969e-07 0
1.2021e-06 -1.0141e-07 0
1.2089e-06 -8.3269e-08 0
1.2172e-06 -6.5317e-08 0
1.2269e-06 -4.7597e-08 0
1.2719e-06 -5.7241e-07 0
1.2638e-06 -5.5687e-07 0
1.256e-06 -5.4095e-07 0
1.2483e-06 -5.2468e-07 0
1.2408e-06 -5.081e-07 0
1.2336e-06 -4.9124e-07 0
1.2266e-06 -4.7413e-07 0
1.2199e-06 -4.568e-07 0
1.2135e-06 -4.3927e-07 0
1.2073e-06 -4.2156e-07 0
1.2015e-06 -4.0369e-07 0
1.1961e-06 -3.8568e-07 0
1.191e-06 -3.6754e-07 0
1.1863e-06 -3.4929e-07 0
1.1821e-06 -3.3093e-07 0
1.1783e-06 -3.125e-07 0
1.1751e-06 -2.9399e-07 0
1.1724e-06 -2.7541e-07 0
1.1702e-06 -2.5679e-07 0
1.1687e-06 -2.3814e-07 0
1.1678e-06 -2.1946e-07 0
1.1677e-06 -2.0077e-07 0
1.1683e-06 -1.8208e-07 0
1.1697e-06 -1.6341e-07 0
1.172e-06 -1.4478e-07 0
1.1753e-06 -1.2621e-07 0
1.1796e-06 -1.0771e-07 0
1.185e-06 -8.9329e-08 0
1.1917e-06 -7.1088e-08 0
1.1997e-06 -5.3029e-08 0
1.2093e-06 -3.52e-08 0
1.2565e-06 -5.6271e-07 0
1.2484e-06 -5.4705e-07 0
1.2405e-06 -5.3101e-07 0
1.2328e-06 -5.1463e-07 0
1.2253e-06 -4.9794e-07 0
1.218e-06 -4.8098e-07 0
1.211e-06 -4.6377e-07 0
1.2042e-06 -4.4634e-07 0
1.1977e-06 -4.2872e-07 0
1.1915e-06 -4.1092e-07 0
1.1856e-06 -3.9297e-07 0
1.1801e-06 -3.7488e-07 0
1.175e-06 -3.5667e-07 0
1.1702e-06 -3.3835e-07 0
1.1659e-06 -3.1993e-07 0
1.1621e-06 -3.0143e-07 0
1.1588e-06 -2.8286e-07 0
1.156e-06 -2.6423e-07 0
1.1538e-06 -2.4554e-07 0
1.1522e-06 -2.2682e-07 0
1.1513e-06 -2.0807e-07 0
1.151e-06 -1.893e-07 0
1.1516e-06 -1.7054e-07 0
1.1529e-06 -1.5178e-07 0
1.1551e-06 -1.3306e-07 0
1.1583e-06 -1.1439e-07 0
1.1625e-06 -9.5788e-08 0
1.1678e-06 -7.7291e-08 0
1.1743e-06 -5.8928e-08 0
1.1822e-06 -4.0741e-08 0
1.1915e-06 -2.2775e-08 0
1.241e-06 -5.5322e-07 0
1.2329e-06 -5.3743e-07 0
1.225e-06 -5.2126e-07 0
1.2172e-06 -5.0474e-07 0
1.2096e-06 -4.8793e-07 0
1.2023e-06 -4.7085e-07 0
1.1952e-06 -4.5353e-07 0
1.1884e-06 -4.36e-07 0
1.1818e-06 -4.1828e-07 0
1.1755e-06 -4.0039e-07 0
1.1696e-06 -3.8236e-07 0
1.164e-06 -3.6419e-07 0
1.1588e-06 -3.459e-07 0
1.154e-06 -3.2751e-07 0
1.1496e-06 -3.0903e-07 0
1.1457e-06 -2.9046e-07 0
1.1423e-06 -2.7183e-07 0
1.1395e-06 -2.5313e-07 0
1.1372e-06 -2.3438e-07 0
1.1355e-06 -2.1559e-07 0
1.1345e-06 -1.9677e-07 0
1.1342e-06 -1.7793e-07 0
1.1347e-06 -1.5908e-07 0
1.136e-06 -1.4024e-07 0
1.1381e-06 -1.2142e-07 0
1.1412e-06 -1.0264e-07 0
1.1452e-06 -8.3922e-08 0
1.1504e-06 -6.5297e-08 0
1.1568e-06 -4.6795e-08 0
1.1645e-06 -2.8456e-08 0
1.1736e-06 -1.0326e-08 0
1.2253e-06 -5.4396e-07 0
1.2172e-06 -5.28e-07 0
1.2092e-06 -5.1168e-07 0
1.2014e-06 -4.9502e-07 0
1.1938e-06 -4.7807e-07 0
1.1864e-06 -4.6086e-07 0
1.1793e-06 -4.4342e-07 0
1.1723e-06 -4.2577e-07 0
1.1657e-06 -4.0795e-07 0
1.1594e-06 -3.8997e-07 0
1.1534e-06 -3.7184e-07 0
1.1477e-06 -3.5359e-07 0
1.1424e-06 -3.3523e-07 0
1.1376e-06 -3.1677e-07 0
1.1331e-06 -2.9822e-07 0
1.1292e-06 -2.7959e-07 0
1.1257e-06 -2.6089e-07 0
1.1228e-06 -2.4214e-07 0
1.1204e-06 -2.2332e-07 0
1.1187e-06 -2.0447e-07 0
1.1176e-06 -1.8558e-07 0
1.1173e-06 -1.6666e-07 0
1.1176e-06 -1.4773e-07 0
1.1188e-06 -1.2879e-07 0
1.1209e-06 -1.0986e-07 0
1.1238e-06 -9.0967e-08 0
1.1278e-06 -7.2121e-08 0
1.1328e-06 -5.3353e-08 0
1.1391e-06 -3.4693e-08 0
1.1466e-06 -1.618e-08 0
1.1555e-06 2.1406e-09 0
1.2095e-06 -5.3492e-07 0
1.2013e-06 -5.1877e-07 0
1.1933e-06 -5.0227e-07 0
1.1855e-06 -4.8545e-07 0
1.1778e-06 -4.6834e-07 0
1.1704e-06 -4.5099e-07 0
1.1631e-06 -4.3342e-07 0
1.1561e-06 -4.1566e-07 0
1.1494e-06 -3.9772e-07 0
1.143e-06 -3.7964e-07 0
1.1369e-06 -3.6142e-07 0
1.1312e-06 -3.4309e-07 0
1.1258e-06 -3.2465e-07 0
1.1209e-06 -3.0612e-07 0
1.1164e-06 -2.8751e-07 0
1.1124e-06 -2.6882e-07 0
1.1088e-06 -2.5006e-07 0
1.1059e-06 -2.3124e-07 0
1.1034e-06 -2.1237e-07 0
1.1016e-06 -1.9345e-07 0
1.1005e-06 -1.7448e-07 0
1.1001e-06 -1.5549e-07 0
1.1004e-06 -1.3647e-07 0
1.1015e-06 -1.1743e-07 0
1.1034e-06 -9.8398e-08 0
1.1063e-06 -7.9378e-08 0
1.1101e-06 -6.0394e-08 0
1.1151e-06 -4.1468e-08 0
1.1211e-06 -2.2633e-08 0
1.1285e-06 -3.9232e-09 0
1.1371e-06 1.4616e-08 0
1.1934e-06 -5.2608e-07 0
1.1852e-06 -5.0973e-07 0
1.1772e-06 -4.9303e-07 0
1.1693e-06 -4.7603e-07 0
1.1616e-06 -4.5876e-07 0
1.1541e-06 -4.4125e-07 0
1.1468e-06 -4.2354e-07 0
1.1397e-06 -4.0565e-07 0
1.1329e-06 -3.876e-07 0
1.1264e-06 -3.6941e-07 0
1.1203e-06 -3.511e-07 0
1.1144e-06 -3.3269e-07 0
1.109e-06 -3.1417e-07 0
1.104e-06 -2.9557e-07 0
1.0994e-06 -2.7689e-07 0
1.0953e-06 -2.5814e-07 0
1.0917e-06 -2.3933e-07 0
1.0887e-06 -2.2045e-07 0
1.0862e-06 -2.0152e-07 0
1.0843e-06 -1.8253e-07 0
1.0831e-06 -1.635e-07 0
1.0826e-06 -1.4443e-07 0
1.0828e-06 -1.2532e-07 0
1.0838e-06 -1.0618e-07 0
1.0857e-06 -8.7034e-08 0
1.0885e-06 -6.7883e-08 0
1.0922e-06 -4.8749e-08 0
1.097e-06 -2.9653e-08 0
1.103e-06 -1.0624e-08 0
1.1101e-06 8.3042e-09 0
1.1186e-06 2.709e-08 0
1.1771e-06 -5.1746e-07 0
1.1689e-06 -5.0087e-07 0
1.1608e-06 -4.8396e-07 0
1.1529e-06 -4.6675e-07 0
1.1451e-06 -4.493e-07 0
1.1375e-06 -4.3163e-07 0
1.1301e-06 -4.1377e-07 0
1.123e-06 -3.9574e-07 0
1.1161e-06 -3.7757e-07 0
1.1096e-06 -3.5928e-07 0
1.1033e-06 -3.4087e-07 0
1.0974e-06 -3.2237e-07 0
1.0919e-06 -3.0378e-07 0
1.0868e-06 -2.8512e-07 0
1.0822e-06 -2.6638e-07 0
1.078e-06 -2.4757e-07 0
1.0743e-06 -2.287e-07 0
1.0712e-06 -2.0977e-07 0
1.0686e-06 -1.9078e-07 0
1.0667e-06 -1.7173e-07 0
1.0654e-06 -1.5263e-07 0
1.0648e-06 -1.3348e-07 0
1.065e-06 -1.1429e-07 0
1.0659e-06 -9.505e-08 0
1.0677e-06 -7.5781e-08 0
1.0704e-06 -5.6492e-08 0
1.074e-06 -3.7198e-08 0
1.0787e-06 -1.7919e-08 0
1.0845e-06 1.3203e-09 0
1.0915e-06 2.0489e-08 0
1.0997e-06 3.9547e-08 0
1.1606e-06 -5.0903e-07 0
1.1524e-06 -4.9219e-07 0
1.1442e-06 -4.7504e-07 0
1.1362e-06 -4.5762e-07 0
1.1284e-06 -4.3997e-07 0
1.1207e-06 -4.2212e-07 0
1.1132e-06 -4.041e-07 0
1.106e-06 -3.8594e-07 0
1.0991e-06 -3.6764e-07 0
1.0924e-06 -3.4924e-07 0
1.0861e-06 -3.3074e-07 0
1.0801e-06 -3.1215e-07 0
1.0745e-06 -2.9349e-07 0
1.0693e-06 -2.7476e-07 0
1.0646e-06 -2.5596e-07 0
1.0603e-06 -2.371e-07 0
1.0566e-06 -2.1818e-07 0
1.0534e-06 -1.992e-07 0
1.0508e-06 -1.8016e-07 0
1.0488e-06 -1.6105e-07 0
1.0474e-06 -1.4189e-07 0
1.0468e-06 -1.2266e-07 0
1.0468e-06 -1.0338e-07 0
1.0477e-06 -8.4041e-08 0
1.0494e-06 -6.4651e-08 0
1.052e-06 -4.5218e-08 0
1.0555e-06 -2.5756e-08 0
1.0601e-06 -6.2812e-09 0
1.0657e-06 1.3185e-08 0
1.0725e-06 3.2614e-08 0
1.0806e-06 5.1971e-08 0
1.1438e-06 -5.008e-07 0
1.1355e-06 -4.8367e-07 0
1.1273e-06 -4.6627e-07 0
1.1192e-06 -4.4862e-07 0
1.1113e-06 -4.3076e-07 0
1.1036e-06 -4.1273e-07 0
1.096e-06 -3.9454e-07 0
1.0887e-06 -3.7623e-07 0
1.0817e-06 -3.578e-07 0
1.0749e-06 -3.3929e-07 0
1.0685e-06 -3.2069e-07 0
1.0624e-06 -3.0202e-07 0
1.0567e-06 -2.8329e-07 0
1.0515e-06 -2.6449e-07 0
1.0467e-06 -2.4564e-07 0
1.0423e-06 -2.2673e-07 0
1.0385e-06 -2.0777e-07 0
1.0352e-06 -1.8874e-07 0
1.0325e-06 -1.6966e-07 0
1.0305e-06 -1.505e-07 0
1.029e-06 -1.3128e-07 0
1.0283e-06 -1.1198e-07 0
1.0283e-06 -9.2613e-08 0
1.0291e-06 -7.317e-08 0
1.0307e-06 -5.3656e-08 0
1.0332e-06 -3.4076e-08 0
1.0367e-06 -1.4438e-08 0
1.0411e-06 5.2445e-09 0
1.0466e-06 2.4953e-08 0
1.0532e-06 4.4663e-08 0
1.0611e-06 6.4343e-08 0
1.1267e-06 -4.9275e-07 0
1.1183e-06 -4.7532e-07 0
1.1101e-06 -4.5764e-07 0
1.1019e-06 -4.3974e-07 0
1.0939e-06 -4.2166e-07 0
1.0861e-06 -4.0343e-07 0
1.0785e-06 -3.8507e-07 0
1.0711e-06 -3.666e-07 0
1.0639e-06 -3.4805e-07 0
1.0571e-06 -3.2942e-07 0
1.0506e-06 -3.1072e-07 0
1.0444e-06 -2.9197e-07 0
1.0386e-06 -2.7317e-07 0
1.0333e-06 -2.5432e-07 0
1.0284e-06 -2.3543e-07 0
1.0239e-06 -2.1648e-07 0
1.02e-06 -1.9747e-07 0
1.0167e-06 -1.7841e-07 0
1.0139e-06 -1.5928e-07 0
1.0118e-06 -1.4009e-07 0
1.0103e-06 -1.2081e-07 0
1.0095e-06 -1.0145e-07 0
1.0095e-06 -8.1995e-08 0
1.0102e-06 -6.2451e-08 0
1.0117e-06 -4.2812e-08 0
1.0141e-06 -2.308e-08 0
1.0175e-06 -3.2601e-09 0
1.0218e-06 1.664e-08 0
1.0271e-06 3.6604e-08 0
1.0336e-06 5.6614e-08 0
1.0413e-06 7.6642e-08 0
1.1092e-06 -4.8486e-07 0
1.1008e-06 -4.6711e-07 0
1.0925e-06 -4.4914e-07 0
1.0843e-06 -4.3098e-07 0
1.0762e-06 -4.1267e-07 0
1.0683e-06 -3.9423e-07 0
1.0605e-06 -3.7569e-07 0
1.053e-06 -3.5706e-07 0
1.0458e-06 -3.3837e-07 0
1.0389e-06 -3.1963e-07 0
1.0322e-06 -3.0084e-07 0
1.026e-06 -2.8201e-07 0
1.0201e-06 -2.6315e-07 0
1.0147e-06 -2.4425e-07 0
1.0097e-06 -2.2531e-07 0
1.0052e-06 -2.0633e-07 0
1.0012e-06 -1.873e-07 0
9.9775e-07 -1.6821e-07 0
9.9491e-07 -1.4905e-07 0
9.927e-07 -1.2981e-07 0
9.9114e-07 -1.1049e-07 0
9.9028e-07 -9.1068e-08 0
9.9015e-07 -7.154e-08 0
9.908e-07 -5.1898e-08 0
9.9226e-07 -3.2135e-08 0
9.9459e-07 -1.225e-08 0
9.9783e-07 7.7576e-09 0
1.002e-06 2.7883e-08 0
1.0073e-06 4.8118e-08 0
1.0136e-06 6.8445e-08 0
1.0211e-06 8.8843e-08 0
1.0914e-06 -4.7714e-07 0
1.083e-06 -4.5905e-07 0
1.0746e-06 -4.4076e-07 0
1.0663e-06 -4.2233e-07 0
1.0581e-06 -4.0377e-07 0
1.0501e-06 -3.8511e-07 0
1.0422e-06 -3.6638e-07 0
1.0346e-06 -3.4759e-07 0
1.0273e-06 -3.2877e-07 0
1.0202e-06 -3.0991e-07 0
1.0135e-06 -2.9103e-07 0
1.0071e-06 -2.7213e-07 0
1.0012e-06 -2.5321e-07 0
9.9562e-07 -2.3427e-07 0
9.9053e-07 -2.153e-07 0
9.8594e-07 -1.963e-07 0
9.8187e-07 -1.7725e-07 0
9.7836e-07 -1.5814e-07 0
9.7545e-07 -1.3896e-07 0
9.7316e-07 -1.197e-07 0
9.7154e-07 -1.0034e-07 0
9.7061e-07 -8.0862e-08 0
9.7041e-07 -6.1263e-08 0
9.7099e-07 -4.1527e-08 0
9.7238e-07 -2.1644e-08 0
9.7462e-07 -1.6048e-09 0
9.7777e-07 1.8594e-08 0
9.8186e-07 3.8953e-08 0
9.8696e-07 5.9469e-08 0
9.9312e-07 8.013e-08 0
1.0004e-06 1.0092e-07 0
1.0732e-06 -4.6956e-07 0
1.0647e-06 -4.511e-07 0
1.0562e-06 -4.3249e-07 0
1.0478e-06 -4.1376e-07 0
1.0396e-06 -3.9495e-07 0
1.0314e-06 -3.7606e-07 0
1.0235e-06 -3.5714e-07 0
1.0158e-06 -3.3819e-07 0
1.0083e-06 -3.1923e-07 0
1.0012e-06 -3.0026e-07 0
9.9433e-07 -2.813e-07 0
9.8785e-07 -2.6233e-07 0
9.8177e-07 -2.4336e-07 0
9.7612e-07 -2.2439e-07 0
9.7093e-07 -2.054e-07 0
9.6625e-07 -1.8638e-07 0
9.6209e-07 -1.6732e-07 0
9.5851e-07 -1.4821e-07 0
9.5551e-07 -1.2902e-07 0
9.5316e-07 -1.0974e-07 0
9.5146e-07 -9.0356e-08 0
9.5047e-07 -7.0841e-08 0
9.5021e-07 -5.1181e-08 0
9.5072e-07 -3.1358e-08 0
9.5203e-07 -1.1357e-08 0
9.542e-07 8.8344e-09 0
9.5725e-07 2.9226e-08 0
9.6124e-07 4.9825e-08 0
9.6622e-07 7.0631e-08 0
9.7223e-07 9.1642e-08 0
9.7935e-07 1.1285e-07 0
1.0547e-06 -4.621e-07 0
1.0461e-06 -4.4327e-07 0
1.0375e-06 -4.2431e-07 0
1.029e-06 -4.0528e-07 0
1.0206e-06 -3.862e-07 0
1.0124e-06 -3.6708e-07 0
1.0043e-06 -3.4796e-07 0
9.9651e-07 -3.2885e-07 0
9.8893e-07 -3.0975e-07 0
9.8164e-07 -2.9068e-07 0
9.7468e-07 -2.7163e-07 0
9.6809e-07 -2.526e-07 0
9.6189e-07 -2.336e-07 0
9.5614e-07 -2.146e-07 0
9.5085e-07 -1.956e-07 0
9.4607e-07 -1.7659e-07 0
9.4182e-07 -1.5754e-07 0
9.3815e-07 -1.3843e-07 0
9.3508e-07 -1.1925e-07 0
9.3265e-07 -9.9968e-08 0
9.3089e-07 -8.0567e-08 0
9.2983e-07 -6.1022e-08 0
9.2951e-07 -4.131e-08 0
9.2995e-07 -2.1408e-08 0
9.312e-07 -1.2962e-09 0
9.3329e-07 1.9044e-08 0
9.3626e-07 3.9629e-08 0
9.4015e-07 6.0471e-08 0
9.45e-07 8.1577e-08 0
9.5088e-07 1.0295e-07 0
9.5783e-07 1.2459e-07 0
1.0357e-06 -4.5476e-07 0
1.027e-06 -4.3552e-07 0
1.0183e-06 -4.1621e-07 0
1.0098e-06 -3.9686e-07 0
1.0013e-06 -3.775e-07 0
9.929e-07 -3.5815e-07 0
9.8471e-07 -3.3883e-07 0
9.7675e-07 -3.1955e-07 0
9.6904e-07 -3.0032e-07 0
9.6162e-07 -2.8114e-07 0
9.5454e-07 -2.6202e-07 0
9.4782e-07 -2.4295e-07 0
9.4151e-07 -2.2392e-07 0
9.3564e-07 -2.0491e-07 0
9.3025e-07 -1.8592e-07 0
9.2537e-07 -1.6692e-07 0
9.2103e-07 -1.4789e-07 0
9.1728e-07 -1.288e-07 0
9.1413e-07 -1.0964e-07 0
9.1162e-07 -9.0379e-08 0
9.0979e-07 -7.098e-08 0
9.0867e-07 -5.142e-08 0
9.0828e-07 -3.1668e-08 0
9.0866e-07 -1.1699e-08 0
9.0985e-07 8.5156e-09 0
9.1187e-07 2.9e-08 0
9.1475e-07 4.9775e-08 0
9.1855e-07 7.0862e-08 0
9.233e-07 9.2273e-08 0
9.2904e-07 1.1402e-07 0
9.3582e-07 1.361e-07 0
1.0163e-06 -4.4752e-07 0
1.0075e-06 -4.2786e-07 0
9.9874e-07 -4.0818e-07 0
9.9002e-07 -3.885e-07 0
9.814e-07 -3.6885e-07 0
9.7291e-07 -3.4926e-07 0
9.6459e-07 -3.2973e-07 0
9.5649e-07 -3.1029e-07 0
9.4865e-07 -2.9093e-07 0
9.4109e-07 -2.7166e-07 0
9.3388e-07 -2.5247e-07 0
9.2703e-07 -2.3336e-07 0
9.206e-07 -2.1431e-07 0
9.1461e-07 -1.9531e-07 0
9.0911e-07 -1.7634e-07 0
9.0413e-07 -1.5737e-07 0
8.997e-07 -1.3838e-07 0
8.9585e-07 -1.1935e-07 0
8.9262e-07 -1.0023e-07 0
8.9005e-07 -8.0992e-08 0
8.8815e-07 -6.1613e-08 0
8.8696e-07 -4.2052e-08 0
8.8651e-07 -2.2277e-08 0
8.8684e-07 -2.2527e-09 0
8.8796e-07 1.8054e-08 0
8.8991e-07 3.8674e-08 0
8.9273e-07 5.9636e-08 0
8.9644e-07 8.0967e-08 0
9.0108e-07 1.0269e-07 0
9.0669e-07 1.2482e-07 0
9.1331e-07 1.4737e-07 0
9.9641e-07 -4.4035e-07 0
9.8753e-07 -4.2026e-07 0
9.7865e-07 -4.0018e-07 0
9.6981e-07 -3.8017e-07 0
9.6105e-07 -3.6023e-07 0
9.5242e-07 -3.4039e-07 0
9.4396e-07 -3.2066e-07 0
9.3572e-07 -3.0105e-07 0
9.2772e-07 -2.8157e-07 0
9.2003e-07 -2.6221e-07 0
9.1267e-07 -2.4297e-07 0
9.0569e-07 -2.2384e-07 0
8.9913e-07 -2.0479e-07 0
8.9302e-07 -1.8581e-07 0
8.874e-07 -1.6688e-07 0
8.8232e-07 -1.4796e-07 0
8.7779e-07 -1.2904e-07 0
8.7385e-07 -1.1006e-07 0
8.7055e-07 -9.1001e-08 0
8.679e-07 -7.1821e-08 0
8.6593e-07 -5.248e-08 0
8.6469e-07 -3.2939e-08 0
8.6418e-07 -1.3157e-08 0
8.6445e-07 6.9065e-09 0
8.6551e-07 2.7292e-08 0
8.674e-07 4.8037e-08 0
8.7015e-07 6.918e-08 0
8.7378e-07 9.0752e-08 0
8.7832e-07 1.1279e-07 0
8.8381e-07 1.353e-07 0
8.9029e-07 1.5833e-07 0
9.7607e-07 -4.3324e-07 0
9.6708e-07 -4.1269e-07 0
9.5807e-07 -3.9222e-07 0
9.4909e-07 -3.7185e-07 0
9.4019e-07 -3.5162e-07 0
9.3141e-07 -3.3153e-07 0
9.228e-07 -3.116e-07 0
9.144e-07 -2.9183e-07 0
9.0625e-07 -2.7223e-07 0
8.984e-07 -2.528e-07 0
8.909e-07 -2.3352e-07 0
8.8378e-07 -2.1437e-07 0
8.7708e-07 -1.9534e-07 0
8.7085e-07 -1.7641e-07 0
8.6511e-07 -1.5753e-07 0
8.5991e-07 -1.3869e-07 0
8.5529e-07 -1.1985e-07 0
8.5126e-07 -1.0096e-07 0
8.4788e-07 -8.1983e-08 0
8.4515e-07 -6.2879e-08 0
8.4313e-07 -4.3601e-08 0
8.4182e-07 -2.4101e-08 0
8.4126e-07 -4.3319e-09 0
8.4148e-07 1.5753e-08 0
8.4249e-07 3.6202e-08 0
8.4433e-07 5.706e-08 0
8.4701e-07 7.8373e-08 0
8.5057e-07 1.0018e-07 0
8.5502e-07 1.2253e-07 0
8.604e-07 1.4544e-07 0
8.6674e-07 1.6895e-07 0
9.5525e-07 -4.2616e-07 0
9.4613e-07 -4.0515e-07 0
9.3698e-07 -3.8426e-07 0
9.2786e-07 -3.6354e-07 0
9.188e-07 -3.43e-07 0
9.0986e-07 -3.2266e-07 0
9.0108e-07 -3.0253e-07 0
8.9252e-07 -2.8261e-07 0
8.8421e-07 -2.6291e-07 0
8.762e-07 -2.4341e-07 0
8.6854e-07 -2.241e-07 0
8.6127e-07 -2.0496e-07 0
8.5443e-07 -1.8597e-07 0
8.4807e-07 -1.6709e-07 0
8.4221e-07 -1.4831e-07 0
8.369e-07 -1.2956e-07 0
8.3217e-07 -1.1083e-07 0
8.2806e-07 -9.2051e-08 0
8.2459e-07 -7.3187e-08 0
8.218e-07 -5.4185e-08 0
8.1971e-07 -3.4993e-08 0
8.1835e-07 -1.5558e-08 0
8.1774e-07 4.175e-09 0
8.179e-07 2.4261e-08 0
8.1887e-07 4.4754e-08 0
8.2066e-07 6.571e-08 0
8.2329e-07 8.7181e-08 0
8.2678e-07 1.0922e-07 0
8.3115e-07 1.3187e-07 0
8.3643e-07 1.5518e-07 0
8.4264e-07 1.7919e-07 0
9.3392e-07 -4.191e-07 0
9.2466e-07 -3.976e-07 0
9.1536e-07 -3.7629e-07 0
9.0608e-07 -3.552e-07 0
8.9685e-07 -3.3435e-07 0
8.8774e-07 -3.1376e-07 0
8.7879e-07 -2.9344e-07 0
8.7005e-07 -2.7337e-07 0
8.6157e-07 -2.5357e-07 0
8.5339e-07 -2.3402e-07 0
8.4557e-07 -2.147e-07 0
8.3814e-07 -1.9559e-07 0
8.3116e-07 -1.7666e-07 0
8.2466e-07 -1.5788e-07 0
8.1868e-07 -1.392e-07 0
8.1326e-07 -1.2058e-07 0
8.0843e-07 -1.0199e-07 0
8.0422e-07 -8.335e-08 0
8.0068e-07 -6.4625e-08 0
7.9781e-07 -4.5753e-08 0
7.9566e-07 -2.6677e-08 0
7.9425e-07 -7.3336e-09 0
7.9359e-07 1.2338e-08 0
7.9372e-07 3.24e-08 0
7.9464e-07 5.2917e-08 0
7.9639e-07 7.3951e-08 0
7.9897e-07 9.5565e-08 0
8.0241e-07 1.1782e-07 0
8.0671e-07 1.4077e-07 0
8.119e-07 1.6448e-07 0
8.1799e-07 1.8899e-07 0
9.1207e-07 -4.1202e-07 0
9.0266e-07 -3.9002e-07 0
8.932e-07 -3.6828e-07 0
8.8374e-07 -3.4682e-07 0
8.7434e-07 -3.2566e-07 0
8.6504e-07 -3.0482e-07 0
8.559e-07 -2.8431e-07 0
8.4697e-07 -2.6411e-07 0
8.3831e-07 -2.4423e-07 0
8.2996e-07 -2.2464e-07 0
8.2197e-07 -2.0533e-07 0
8.1438e-07 -1.8627e-07 0
8.0725e-07 -1.6743e-07 0
8.0061e-07 -1.4876e-07 0
7.945e-07 -1.3022e-07 0
7.8896e-07 -1.1176e-07 0
7.8403e-07 -9.3329e-08 0
7.7974e-07 -7.4867e-08 0
7.7611e-07 -5.6313e-08 0
7.7318e-07 -3.7604e-08 0
7.7097e-07 -1.8673e-08 0
7.6951e-07 5.4788e-10 0
7.6882e-07 2.0129e-08 0
7.689e-07 4.0141e-08 0
7.698e-07 6.0657e-08 0
7.7151e-07 8.1748e-08 0
7.7405e-07 1.0349e-07 0
7.7744e-07 1.2594e-07 0
7.8168e-07 1.4919e-07 0
7.868e-07 1.7328e-07 0
7.9278e-07 1.9829e-07 0
8.8968e-07 -4.0491e-07 0
8.801e-07 -3.824e-07 0
8.7047e-07 -3.6021e-07 0
8.6083e-07 -3.3837e-07 0
8.5123e-07 -3.1691e-07 0
8.4174e-07 -2.9582e-07 0
8.324e-07 -2.7512e-07 0
8.2328e-07 -2.548e-07 0
8.1442e-07 -2.3485e-07 0
8.0589e-07 -2.1525e-07 0
7.9772e-07 -1.9598e-07 0
7.8997e-07 -1.7699e-07 0
7.8268e-07 -1.5826e-07 0
7.759e-07 -1.3974e-07 0
7.6966e-07 -1.2137e-07 0
7.6401e-07 -1.031e-07 0
7.5897e-07 -8.487e-08 0
7.5459e-07 -6.6615e-08 0
7.5089e-07 -4.8267e-08 0
7.479e-07 -2.9755e-08 0
7.4563e-07 -1.1004e-08 0
7.4413e-07 8.0611e-09 0
7.434e-07 2.752e-08 0
7.4346e-07 4.7452e-08 0
7.4432e-07 6.7939e-08 0
7.4601e-07 8.9063e-08 0
7.4852e-07 1.109e-07 0
7.5187e-07 1.3355e-07 0
7.5607e-07 1.5707e-07 0
7.6111e-07 1.8155e-07 0
7.6701e-07 2.0706e-07 0
8.6673e-07 -3.9773e-07 0
8.5698e-07 -3.7469e-07 0
8.4716e-07 -3.5205e-07 0
8.3732e-07 -3.2983e-07 0
8.2751e-07 -3.0806e-07 0
8.1781e-07 -2.8673e-07 0
8.0827e-07 -2.6585e-07 0
7.9894e-07 -2.4543e-07 0
7.8988e-07 -2.2543e-07 0
7.8115e-07 -2.0584e-07 0
7.728e-07 -1.8662e-07 0
7.6488e-07 -1.6775e-07 0
7.5743e-07 -1.4916e-07 0
7.5051e-07 -1.3081e-07 0
7.4414e-07 -1.1265e-07 0
7.3837e-07 -9.4609e-08 0
7.3324e-07 -7.6619e-08 0
7.2877e-07 -5.861e-08 0
7.25e-07 -4.0506e-08 0
7.2194e-07 -2.2228e-08 0
7.1963e-07 -3.6948e-09 0
7.1809e-07 1.5179e-08 0
7.1733e-07 3.4481e-08 0
7.1737e-07 5.43e-08 0
7.1821e-07 7.4727e-08 0
7.1988e-07 9.5854e-08 0
7.2238e-07 1.1777e-07 0
7.257e-07 1.4058e-07 0
7.2986e-07 1.6436e-07 0
7.3485e-07 1.8921e-07 0
7.4067e-07 2.1522e-07 0
8.4322e-07 -3.9045e-07 0
8.3328e-07 -3.6688e-07 0
8.2325e-07 -3.4378e-07 0
8.1319e-07 -3.2118e-07 0
8.0317e-07 -2.9909e-07 0
7.9325e-07 -2.7753e-07 0
7.8348e-07 -2.5649e-07 0
7.7394e-07 -2.3597e-07 0
7.6467e-07 -2.1595e-07 0
7.5574e-07 -1.9639e-07 0
7.472e-07 -1.7727e-07 0
7.3911e-07 -1.5853e-07 0
7.315e-07 -1.4012e-07 0
7.2443e-07 -1.2199e-07 0
7.1793e-07 -1.0408e-07 0
7.1205e-07 -8.6299e-08 0
7.0682e-07 -6.8588e-08 0
7.0227e-07 -5.0866e-08 0
6.9843e-07 -3.3047e-08 0
6.9532e-07 -1.5045e-08 0
6.9297e-07 3.2311e-09 0
6.914e-07 2.1874e-08 0
6.9061e-07 4.098e-08 0
6.9063e-07 6.0649e-08 0
6.9147e-07 8.0982e-08 0
6.9313e-07 1.0208e-07 0
6.9562e-07 1.2405e-07 0
6.9893e-07 1.4699e-07 0
7.0307e-07 1.7101e-07 0
7.0802e-07 1.9622e-07 0
7.1378e-07 2.2272e-07 0
8.1913e-07 -3.8306e-07 0
8.0898e-07 -3.5893e-07 0
7.9873e-07 -3.3536e-07 0
7.8844e-07 -3.1237e-07 0
7.7819e-07 -2.8998e-07 0
7.6803e-07 -2.6819e-07 0
7.5803e-07 -2.4701e-07 0
7.4825e-07 -2.2642e-07 0
7.3877e-07 -2.0639e-07 0
7.2963e-07 -1.869e-07 0
7.209e-07 -1.679e-07 0
7.1263e-07 -1.4933e-07 0
7.0486e-07 -1.3115e-07 0
6.9765e-07 -1.1328e-07 0
6.9103e-07 -9.5646e-08 0
6.8504e-07 -7.8178e-08 0
6.7972e-07 -6.0792e-08 0
6.7509e-07 -4.3399e-08 0
6.7118e-07 -2.591e-08 0
6.6803e-07 -8.2274e-09 0
6.6564e-07 9.7469e-09 0
6.6404e-07 2.8116e-08 0
6.6325e-07 4.6985e-08 0
6.6326e-07 6.6464e-08 0
6.641e-07 8.6664e-08 0
6.6576e-07 1.077e-07 0
6.6825e-07 1.2968e-07 0
6.7156e-07 1.5274e-07 0
6.7569e-07 1.7697e-07 0
6.8062e-07 2.0252e-07 0
6.8633e-07 2.2948e-07 0
7.9444e-07 -3.7551e-07 0
7.8406e-07 -3.5082e-07 0
7.7358e-07 -3.2677e-07 0
7.6304e-07 -3.0339e-07 0
7.5254e-07 -2.8069e-07 0
7.4213e-07 -2.587e-07 0
7.3188e-07 -2.3739e-07 0
7.2187e-07 -2.1675e-07 0
7.1216e-07 -1.9675e-07 0
7.0282e-07 -1.7736e-07 0
6.9389e-07 -1.5851e-07 0
6.8544e-07 -1.4016e-07 0
6.7752e-07 -1.2224e-07 0
6.7016e-07 -1.0467e-07 0
6.6342e-07 -8.7371e-08 0
6.5733e-07 -7.0259e-08 0
6.5192e-07 -5.3244e-08 0
6.4722e-07 -3.623e-08 0
6.4326e-07 -1.9117e-08 0
6.4007e-07 -1.801e-09 0
6.3765e-07 1.5825e-08 0
6.3604e-07 3.3874e-08 0
6.3524e-07 5.2461e-08 0
6.3526e-07 7.1706e-08 0
6.361e-07 9.1731e-08 0
6.3778e-07 1.1266e-07 0
6.4029e-07 1.3463e-07 0
6.4361e-07 1.5776e-07 0
6.4774e-07 1.8218e-07 0
6.5266e-07 2.0804e-07 0
6.5835e-07 2.3546e-07 0
7.6913e-07 -3.6776e-07 0
7.5851e-07 -3.425e-07 0
7.4777e-07 -3.1796e-07 0
7.3698e-07 -2.9419e-07 0
7.2621e-07 -2.7121e-07 0
7.1553e-07 -2.4901e-07 0
7.0503e-07 -2.2759e-07 0
6.9477e-07 -2.0694e-07 0
6.8483e-07 -1.87e-07 0
6.7527e-07 -1.6774e-07 0
6.6615e-07 -1.491e-07 0
6.5753e-07 -1.3101e-07 0
6.4945e-07 -1.134e-07 0
6.4197e-07 -9.6178e-08 0
6.3511e-07 -7.9262e-08 0
6.2892e-07 -6.2556e-08 0
6.2344e-07 -4.5962e-08 0
6.1868e-07 -2.9376e-08 0
6.1467e-07 -1.269e-08 0
6.1145e-07 4.2089e-09 0
6.0902e-07 2.1437e-08 0
6.0739e-07 3.9117e-08 0
6.066e-07 5.7373e-08 0
6.0663e-07 7.6337e-08 0
6.075e-07 9.6141e-08 0
6.092e-07 1.1692e-07 0
6.1173e-07 1.3883e-07 0
6.1508e-07 1.62e-07 0
6.1923e-07 1.8658e-07 0
6.2416e-07 2.1271e-07 0
6.2984e-07 2.4057e-07 0
7.4319e-07 -3.598e-07 0
7.3231e-07 -3.3394e-07 0
7.213e-07 -3.0891e-07 0
7.1023e-07 -2.8475e-07 0
6.9917e-07 -2.6148e-07 0
6.8822e-07 -2.391e-07 0
6.7745e-07 -2.1761e-07 0
6.6694e-07 -1.9697e-07 0
6.5677e-07 -1.7713e-07 0
6.4699e-07 -1.5805e-07 0
6.3768e-07 -1.3966e-07 0
6.2889e-07 -1.2188e-07 0
6.2067e-07 -1.0463e-07 0
6.1306e-07 -8.7811e-08 0
6.061e-07 -7.133e-08 0
5.9983e-07 -5.5083e-08 0
5.9428e-07 -3.8964e-08 0
5.8947e-07 -2.2859e-08 0
5.8543e-07 -6.6534e-09 0
5.8218e-07 9.7755e-09 0
5.7974e-07 2.6553e-08 0
5.7813e-07 4.3811e-08 0
5.7734e-07 6.1685e-08 0
5.774e-07 8.0316e-08 0
5.783e-07 9.9851e-08 0
5.8004e-07 1.2044e-07 0
5.8262e-07 1.4224e-07 0
5.86e-07 1.654e-07 0
5.9019e-07 1.9009e-07 0
5.9515e-07 2.1648e-07 0
6.0084e-07 2.4474e-07 0
7.166e-07 -3.5156e-07 0
7.0544e-07 -3.2509e-07 0
6.9414e-07 -2.9957e-07 0
6.8277e-07 -2.7502e-07 0
6.7141e-07 -2.5148e-07 0
6.6017e-07 -2.2895e-07 0
6.4912e-07 -2.074e-07 0
6.3835e-07 -1.8681e-07 0
6.2794e-07 -1.6713e-07 0
6.1796e-07 -1.4828e-07 0
6.0846e-07 -1.3019e-07 0
5.9951e-07 -1.1278e-07 0
5.9116e-07 -9.594e-08 0
5.8344e-07 -7.9581e-08 0
5.7639e-07 -6.3591e-08 0
5.7005e-07 -4.786e-08 0
5.6445e-07 -3.2271e-08 0
5.5961e-07 -1.6703e-08 0
5.5555e-07 -1.0328e-09 0
5.5229e-07 1.4871e-08 0
5.4986e-07 3.1143e-08 0
5.4826e-07 4.7924e-08 0
5.475e-07 6.536e-08 0
5.4759e-07 8.3604e-08 0
5.4854e-07 1.0281e-07 0
5.5033e-07 1.2315e-07 0
5.5295e-07 1.448e-07 0
5.564e-07 1.6791e-07 0
5.6064e-07 1.9268e-07 0
5.6564e-07 2.1928e-07 0
5.7137e-07 2.479e-07 0
6.8933e-07 -3.4303e-07 0
6.7788e-07 -3.1593e-07 0
6.6626e-07 -2.899e-07 0
6.5457e-07 -2.6497e-07 0
6.429e-07 -2.4117e-07 0
6.3135e-07 -2.1851e-07 0
6.2002e-07 -1.9695e-07 0
6.0899e-07 -1.7646e-07 0
5.9835e-07 -1.5698e-07 0
5.8816e-07 -1.3841e-07 0
5.7849e-07 -1.2069e-07 0
5.694e-07 -1.037e-07 0
5.6093e-07 -8.7341e-08 0
5.5312e-07 -7.1502e-08 0
5.4601e-07 -5.6064e-08 0
5.3962e-07 -4.0907e-08 0
5.3398e-07 -2.5906e-08 0
5.2912e-07 -1.0933e-08 0
5.2506e-07 4.145e-09 0
5.2181e-07 1.9466e-08 0
5.1939e-07 3.5174e-08 0
5.1782e-07 5.142e-08 0
5.171e-07 6.836e-08 0
5.1724e-07 8.6158e-08 0
5.1823e-07 1.0499e-07 0
5.2009e-07 1.2502e-07 0
5.2278e-07 1.4645e-07 0
5.263e-07 1.6946e-07 0
5.3061e-07 1.9425e-07 0
5.3568e-07 2.2102e-07 0
5.4146e-07 2.4997e-07 0
6.6137e-07 -3.3414e-07 0
6.496e-07 -3.0639e-07 0
6.3764e-07 -2.7984e-07 0
6.2561e-07 -2.5454e-07 0
6.1361e-07 -2.3051e-07 0
6.0174e-07 -2.0775e-07 0
5.9012e-07 -1.8623e-07 0
5.7883e-07 -1.6589e-07 0
5.6796e-07 -1.4666e-07 0
5.5758e-07 -1.2845e-07 0
5.4776e-07 -1.1116e-07 0
5.3855e-07 -9.4662e-08 0
5.2999e-07 -7.8848e-08 0
5.2212e-07 -6.3593e-08 0
5.1496e-07 -4.8769e-08 0
5.0855e-07 -3.4247e-08 0
5.0291e-07 -1.9894e-08 0
4.9805e-07 -5.5749e-09 0
4.94e-07 8.852e-09 0
4.9077e-07 2.3532e-08 0
4.8838e-07 3.8617e-08 0
4.8685e-07 5.4267e-08 0
4.8617e-07 7.0649e-08 0
4.8637e-07 8.7939e-08 0
4.8743e-07 1.0632e-07 0
4.8936e-07 1.2599e-07 0
4.9214e-07 1.4715e-07 0
4.9574e-07 1.7e-07 0
5.0014e-07 1.9476e-07 0
5.053e-07 2.2164e-07 0
5.1116e-07 2.5088e-07 0
6.3268e-07 -3.2485e-07 0
6.2056e-07 -2.9643e-07 0
6.0825e-07 -2.6936e-07 0
5.9585e-07 -2.4369e-07 0
5.835e-07 -2.1945e-07 0
5.7131e-07 -1.9664e-07 0
5.5939e-07 -1.7521e-07 0
5.4785e-07 -1.5509e-07 0
5.3677e-07 -1.3619e-07 0
5.2623e-07 -1.184e-07 0
5.1628e-07 -1.0161e-07 0
5.0698e-07 -8.5681e-08 0
4.9836e-07 -7.0482e-08 0
4.9045e-07 -5.5878e-08 0
4.8329e-07 -4.1734e-08 0
4.7688e-07 -2.7909e-08 0
4.7126e-07 -1.4265e-08 0
4.6643e-07 -6.5756e-10 0
4.6241e-07 1.3059e-08 0
4.5922e-07 2.7039e-08 0
4.5687e-07 4.144e-08 0
4.5539e-07 5.6432e-08 0
4.5477e-07 7.2191e-08 0
4.5503e-07 8.8907e-08 0
4.5617e-07 1.0678e-07 0
4.5819e-07 1.2601e-07 0
4.6106e-07 1.4683e-07 0
4.6477e-07 1.6946e-07 0
4.6928e-07 1.9412e-07 0
4.7454e-07 2.2107e-07 0
4.8051e-07 2.5054e-07 0
6.0323e-07 -3.1511e-07 0
5.9074e-07 -2.8598e-07 0
5.7803e-07 -2.5838e-07 0
5.6525e-07 -2.3235e-07 0
5.5253e-07 -2.0795e-07 0
5.4001e-07 -1.8513e-07 0
5.278e-07 -1.6386e-07 0
5.1602e-07 -1.4403e-07 0
5.0475e-07 -1.2555e-07 0
4.9408e-07 -1.0827e-07 0
4.8404e-07 -9.2065e-08 0
4.7469e-07 -7.678e-08 0
4.6606e-07 -6.2271e-08 0
4.5816e-07 -4.839e-08 0
4.5103e-07 -3.4989e-08 0
4.4466e-07 -2.1924e-08 0
4.3909e-07 -9.0478e-09 0
4.3431e-07 3.7887e-09 0
4.3035e-07 1.6738e-08 0
4.2722e-07 2.9957e-08 0
4.2493e-07 4.3613e-08 0
4.235e-07 5.7883e-08 0
4.2295e-07 7.2953e-08 0
4.2328e-07 8.9024e-08 0
4.2451e-07 1.0631e-07 0
4.2661e-07 1.2504e-07 0
4.296e-07 1.4544e-07 0
4.3342e-07 1.6777e-07 0
4.3806e-07 1.9227e-07 0
4.4346e-07 2.1922e-07 0
4.4955e-07 2.4887e-07 0
5.7297e-07 -3.0485e-07 0
5.6007e-07 -2.7498e-07 0
5.4695e-07 -2.4683e-07 0
5.3376e-07 -2.2048e-07 0
5.2066e-07 -1.9594e-07 0
5.078e-07 -1.7319e-07 0
4.9531e-07 -1.5216e-07 0
4.8332e-07 -1.3273e-07 0
4.7191e-07 -1.1475e-07 0
4.6114e-07 -9.8079e-08 0
4.5107e-07 -8.2548e-08 0
4.4172e-07 -6.7993e-08 0
4.3313e-07 -5.4252e-08 0
4.2529e-07 -4.1164e-08 0
4.1823e-07 -2.8574e-08 0
4.1195e-07 -1.6329e-08 0
4.0646e-07 -4.2777e-09 0
4.0177e-07 7.7322e-09 0
3.9789e-07 1.9857e-08 0
3.9483e-07 3.2259e-08 0
3.9261e-07 4.511e-08 0
3.9125e-07 5.8592e-08 0
3.9077e-07 7.2902e-08 0
3.9118e-07 8.8254e-08 0
3.9249e-07 1.0488e-07 0
3.947e-07 1.2301e-07 0
3.978e-07 1.4292e-07 0
4.0177e-07 1.6487e-07 0
4.0655e-07 1.8914e-07 0
4.121e-07 2.1602e-07 0
4.1835e-07 2.4578e-07 0
5.4185e-07 -2.94e-07 0
5.2851e-07 -2.6335e-07 0
5.1494e-07 -2.3465e-07 0
5.0131e-07 -2.0799e-07 0
4.8781e-07 -1.8339e-07 0
4.7462e-07 -1.6079e-07 0
4.6189e-07 -1.401e-07 0
4.4972e-07 -1.2117e-07 0
4.3821e-07 -1.0381e-07 0
4.2741e-07 -8.7853e-08 0
4.1737e-07 -7.3098e-08 0
4.081e-07 -5.9363e-08 0
3.9961e-07 -4.647e-08 0
3.919e-07 -3.4246e-08 0
3.8497e-07 -2.253e-08 0
3.7883e-07 -1.1163e-08 0
3.7346e-07 9.2274e-12 0
3.6889e-07 1.1141e-08 0
3.6511e-07 2.2389e-08 0
3.6214e-07 3.3919e-08 0
3.6001e-07 4.5905e-08 0
3.5872e-07 5.8535e-08 0
3.5832e-07 7.2014e-08 0
3.588e-07 8.6567e-08 0
3.602e-07 1.0244e-07 0
3.6251e-07 1.1989e-07 0
3.6574e-07 1.3922e-07 0
3.6985e-07 1.607e-07 0
3.748e-07 1.8465e-07 0
3.8054e-07 2.1138e-07 0
3.8697e-07 2.4119e-07 0
5.098e-07 -2.8248e-07 0
4.9599e-07 -2.5099e-07 0
4.8192e-07 -2.2173e-07 0
4.6782e-07 -1.9481e-07 0
4.5393e-07 -1.7022e-07 0
4.4042e-07 -1.4789e-07 0
4.2747e-07 -1.2767e-07 0
4.1519e-07 -1.0937e-07 0
4.0366e-07 -9.2768e-08 0
3.9292e-07 -7.764e-08 0
3.8299e-07 -6.3769e-08 0
3.7387e-07 -5.0947e-08 0
3.6557e-07 -3.8982e-08 0
3.5806e-07 -2.7691e-08 0
3.5133e-07 -1.6908e-08 0
3.4537e-07 -6.471e-09 0
3.4018e-07 3.7742e-09 0
3.3576e-07 1.3981e-08 0
3.3211e-07 2.4306e-08 0
3.2926e-07 3.4914e-08 0
3.2722e-07 4.5979e-08 0
3.2601e-07 5.7693e-08 0
3.2567e-07 7.0269e-08 0
3.2622e-07 8.3941e-08 0
3.277e-07 9.8971e-08 0
3.3011e-07 1.1565e-07 0
3.3347e-07 1.3428e-07 0
3.3773e-07 1.5519e-07 0
3.4287e-07 1.7873e-07 0
3.4881e-07 2.0522e-07 0
3.5547e-07 2.3501e-07 0
4.7675e-07 -2.7018e-07 0
4.624e-07 -2.378e-07 0
4.4779e-07 -2.0798e-07 0
4.3321e-07 -1.8085e-07 0
4.1891e-07 -1.5639e-07 0
4.0513e-07 -1.3447e-07 0
3.9203e-07 -1.1489e-07 0
3.7972e-07 -9.7376e-08 0
3.6826e-07 -8.1671e-08 0
3.5768e-07 -6.7506e-08 0
3.4797e-07 -5.4631e-08 0
3.3912e-07 -4.2817e-08 0
3.3109e-07 -3.1857e-08 0
3.2386e-07 -2.1563e-08 0
3.174e-07 -1.1764e-08 0
3.117e-07 -2.3019e-09 0
3.0673e-07 6.9766e-09 0
3.0251e-07 1.6221e-08 0
2.9902e-07 2.5584e-08 0
2.9629e-07 3.5225e-08 0
2.9435e-07 4.5319e-08 0
2.9321e-07 5.6057e-08 0
2.9293e-07 6.7656e-08 0
2.9354e-07 8.036e-08 0
2.9508e-07 9.4448e-08 0
2.9759e-07 1.1023e-07 0
3.0106e-07 1.2805e-07 0
3.0549e-07 1.4828e-07 0
3.1083e-07 1.7129e-07 0
3.1701e-07 1.9745e-07 0
3.2391e-07 2.2714e-07 0
4.4257e-07 -2.5699e-07 0
4.2763e-07 -2.2362e-07 0
4.1243e-07 -1.9325e-07 0
3.9734e-07 -1.6601e-07 0
3.8266e-07 -1.4184e-07 0
3.6866e-07 -1.2052e-07 0
3.5551e-07 -1.0177e-07 0
3.4329e-07 -8.5239e-08 0
3.3204e-07 -7.06e-08 0
3.2176e-07 -5.754e-08 0
3.124e-07 -4.5775e-08 0
3.0393e-07 -3.5059e-08 0
2.9628e-07 -2.5175e-08 0
2.8943e-07 -1.5932e-08 0
2.8333e-07 -7.1612e-09 0
2.7794e-07 1.2925e-09 0
2.7325e-07 9.5751e-09 0
2.6926e-07 1.7829e-08 0
2.6596e-07 2.62e-08 0
2.6338e-07 3.4841e-08 0
2.6153e-07 4.3919e-08 0
2.6047e-07 5.3625e-08 0
2.6023e-07 6.4175e-08 0
2.6087e-07 7.5822e-08 0
2.6245e-07 8.8859e-08 0
2.6501e-07 1.0362e-07 0
2.6859e-07 1.205e-07 0
2.7318e-07 1.3989e-07 0
2.7874e-07 1.6225e-07 0
2.8518e-07 1.8797e-07 0
2.9237e-07 2.1748e-07 0
4.0713e-07 -2.4275e-07 0
3.9152e-07 -2.083e-07 0
3.7567e-07 -1.7741e-07 0
3.6005e-07 -1.502e-07 0
3.4505e-07 -1.2653e-07 0
3.3093e-07 -1.0606e-07 0
3.1787e-07 -8.8384e-08 0
3.0591e-07 -7.3055e-08 0
2.9505e-07 -5.9667e-08 0
2.8523e-07 -4.7856e-08 0
2.7638e-07 -3.7313e-08 0
2.6842e-07 -2.7777e-08 0
2.6128e-07 -1.9028e-08 0
2.5491e-07 -1.0879e-08 0
2.4924e-07 -3.1651e-09 0
2.4425e-07 4.2585e-09 0
2.399e-07 1.1528e-08 0
2.3618e-07 1.8776e-08 0
2.331e-07 2.6136e-08 0
2.3067e-07 3.3752e-08 0
2.2893e-07 4.1781e-08 0
2.2792e-07 5.0407e-08 0
2.2769e-07 5.9841e-08 0
2.2833e-07 7.0341e-08 0
2.299e-07 8.2211e-08 0
2.3248e-07 9.5817e-08 0
2.3613e-07 1.1158e-07 0
2.4087e-07 1.2998e-07 0
2.4665e-07 1.5151e-07 0
2.5339e-07 1.7667e-07 0
2.6092e-07 2.059e-07 0
3.7024e-07 -2.2726e-07 0
3.5386e-07 -1.9159e-07 0
3.373e-07 -1.6025e-07 0
3.2117e-07 -1.333e-07 0
3.0593e-07 -1.1044e-07 0
2.9187e-07 -9.1151e-08 0
2.7911e-07 -7.4849e-08 0
2.6764e-07 -6.0967e-08 0
2.5738e-07 -4.9019e-08 0
2.4822e-07 -3.8598e-08 0
2.4005e-07 -2.9376e-08 0
2.3276e-07 -2.1087e-08 0
2.2625e-07 -1.3517e-08 0
2.2046e-07 -6.4865e-09 0
2.1532e-07 1.5549e-10 0
2.1079e-07 6.5422e-09 0
2.0683e-07 1.2796e-08 0
2.0343e-07 1.9035e-08 0
2.006e-07 2.5379e-08 0
1.9835e-07 3.1959e-08 0
1.9671e-07 3.8917e-08 0
1.9573e-07 4.6424e-08 0
1.9549e-07 5.4685e-08 0
1.9608e-07 6.395e-08 0
1.9758e-07 7.4532e-08 0
2.0012e-07 8.6819e-08 0
2.0378e-07 1.0128e-07 0
2.0862e-07 1.1847e-07 0
2.1463e-07 1.3899e-07 0
2.2169e-07 1.6343e-07 0
2.2961e-07 1.923e-07 0
3.3165e-07 -2.1023e-07 0
3.1438e-07 -1.7321e-07 0
2.9703e-07 -1.4155e-07 0
2.8044e-07 -1.1521e-07 0
2.6515e-07 -9.3608e-08 0
2.5142e-07 -7.5922e-08 0
2.3927e-07 -6.1343e-08 0
2.2858e-07 -4.9171e-08 0
2.1918e-07 -3.8847e-08 0
2.1091e-07 -2.9938e-08 0
2.0361e-07 -2.2114e-08 0
1.9714e-07 -1.5116e-08 0
1.914e-07 -8.7457e-09 0
1.8629e-07 -2.8407e-09 0
1.8176e-07 2.733e-09 0
1.7776e-07 8.0916e-09 0
1.7425e-07 1.3341e-08 0
1.7121e-07 1.8582e-08 0
1.6866e-07 2.392e-08 0
1.666e-07 2.9465e-08 0
1.6506e-07 3.5345e-08 0
1.6411e-07 4.1712e-08 0
1.6382e-07 4.8752e-08 0
1.643e-07 5.6705e-08 0
1.6566e-07 6.5879e-08 0
1.6805e-07 7.6676e-08 0
1.7163e-07 8.9613e-08 0
1.7651e-07 1.0533e-07 0
1.8271e-07 1.2457e-07 0
1.9013e-07 1.4808e-07 0
1.985e-07 1.7649e-07 0
2.9102e-07 -1.9129e-07 0
2.7266e-07 -1.5274e-07 0
2.5447e-07 -1.2106e-07 0
2.3759e-07 -9.5914e-08 0
2.226e-07 -7.618e-08 0
2.0962e-07 -6.0614e-08 0
1.9849e-07 -4.8136e-08 0
1.8894e-07 -3.7923e-08 0
1.8071e-07 -2.9378e-08 0
1.7356e-07 -2.2068e-08 0
1.6731e-07 -1.5683e-08 0
1.6181e-07 -9.9903e-09 0
1.5694e-07 -4.8158e-09 0
1.5262e-07 -2.1494e-11 0
1.4878e-07 4.5049e-09 0
1.4536e-07 8.8597e-09 0
1.4235e-07 1.313e-08 0
1.3972e-07 1.7398e-08 0
1.3748e-07 2.175e-08 0
1.3563e-07 2.6278e-08 0
1.3422e-07 3.1089e-08 0
1.3328e-07 3.631e-08 0
1.3291e-07 4.2105e-08 0
1.3322e-07 4.8687e-08 0
1.3434e-07 5.6345e-08 0
1.3646e-07 6.5476e-08 0
1.3981e-07 7.6629e-08 0
1.4459e-07 9.0543e-08 0
1.5092e-07 1.0815e-07 0
1.5871e-07 1.3045e-07 0
1.6761e-07 1.5828e-07 0
2.478e-07 -1.6984e-07 0
2.2809e-07 -1.2954e-07 0
2.0908e-07 -9.8484e-08 0
1.9233e-07 -7.5485e-08 0
1.7826e-07 -5.8473e-08 0
1.6666e-07 -4.5613e-08 0
1.5708e-07 -3.5593e-08 0
1.4908e-07 -2.7535e-08 0
1.4231e-07 -2.0861e-08 0
1.3651e-07 -1.5183e-08 0
1.3147e-07 -1.0235e-08 0
1.2706e-07 -5.8262e-09 0
1.2315e-07 -1.8168e-09 0
1.1968e-07 1.9023e-09 0
1.1658e-07 5.4187e-09 0
1.1381e-07 8.8072e-09 0
1.1134e-07 1.2135e-08 0
1.0916e-07 1.5466e-08 0
1.0727e-07 1.8866e-08 0
1.0567e-07 2.2407e-08 0
1.044e-07 2.6172e-08 0
1.0349e-07 3.0263e-08 0
1.0303e-07 3.4812e-08 0
1.0312e-07 3.9995e-08 0
1.0391e-07 4.606e-08 0
1.0561e-07 5.3369e-08 0
1.0852e-07 6.2463e-08 0
1.1296e-07 7.4149e-08 0
1.1923e-07 8.959e-08 0
1.2738e-07 1.1023e-07 0
1.3693e-07 1.3737e-07 0
2.0122e-07 -1.4502e-07 0
1.7978e-07 -1.0299e-07 0
1.6026e-07 -7.3827e-08 0
1.4455e-07 -5.4381e-08 0
1.3243e-07 -4.1083e-08 0
1.2304e-07 -3.1475e-08 0
1.1558e-07 -2.4156e-08 0
1.0951e-07 -1.8336e-08 0
1.0445e-07 -1.3536e-08 0
1.0016e-07 -9.4553e-09 0
9.6442e-08 -5.8948e-09 0
9.3187e-08 -2.7157e-09 0
9.0302e-08 1.8333e-10 0
8.7724e-08 2.8797e-09 0
8.5405e-08 5.4359e-09 0
8.3315e-08 7.9049e-09 0
8.143e-08 1.0334e-08 0
7.9738e-08 1.277e-08 0
7.8238e-08 1.526e-08 0
7.6934e-08 1.7853e-08 0
7.5848e-08 2.0612e-08 0
7.5012e-08 2.3608e-08 0
7.4485e-08 2.6938e-08 0
7.4352e-08 3.0731e-08 0
7.4751e-08 3.5178e-08 0
7.589e-08 4.0566e-08 0
7.8083e-08 4.7359e-08 0
8.1807e-08 5.6352e-08 0
8.7656e-08 6.8929e-08 0
9.6015e-08 8.7187e-08 0
1.0637e-07 1.1336e-07 0
1.4938e-07 -1.1455e-07 0
1.2583e-07 -7.0942e-08 0
1.0724e-07 -4.72e-08 0
9.4798e-08 -3.3653e-08 0
8.603e-08 -2.4944e-08 0
7.9706e-08 -1.8862e-08 0
7.4833e-08 -1.4265e-08 0
7.0938e-08 -1.0612e-08 0
6.7715e-08 -7.5884e-09 0
6.498e-08 -5.0065e-09 0
6.2611e-08 -2.7429e-09 0
6.0525e-08 -7.1238e-10 0
5.8664e-08 1.1473e-09 0
5.6987e-08 2.8838e-09 0
5.5464e-08 4.5358e-09 0
5.4073e-08 6.1362e-09 0
5.28e-08 7.7148e-09 0
5.1637e-08 9.3004e-09 0
5.058e-08 1.0923e-08 0
4.9631e-08 1.2614e-08 0
4.8802e-08 1.4411e-08 0
4.8113e-08 1.636e-08 0
4.7597e-08 1.8522e-08 0
4.7312e-08 2.0977e-08 0
4.7349e-08 2.3845e-08 0
4.7868e-08 2.7313e-08 0
4.9124e-08 3.1694e-08 0
5.1647e-08 3.7605e-08 0
5.6159e-08 4.6232e-08 0
6.4081e-08 6.0368e-08 0
7.5361e-08 8.5229e-08 0
8.8008e-08 -7.7179e-08 0
6.5261e-08 -3.6338e-08 0
5.1171e-08 -2.1294e-08 0
4.5091e-08 -1.5042e-08 0
4.0982e-08 -1.1087e-08 0
3.8127e-08 -8.3272e-09 0
3.5935e-08 -6.2133e-09 0
3.4176e-08 -4.5149e-09 0
3.271e-08 -3.0957e-09 0
3.1455e-08 -1.8739e-09 0
3.0356e-08 -7.9527e-10 0
2.9377e-08 1.7816e-10 0
2.8494e-08 1.0743e-09 0
2.7687e-08 1.9149e-09 0
2.6945e-08 2.7177e-09 0
2.6257e-08 3.4979e-09 0
2.5616e-08 4.2695e-09 0
2.5017e-08 5.0461e-09 0
2.4459e-08 5.8416e-09 0
2.3941e-08 6.6712e-09 0
2.3467e-08 7.5523e-09 0
2.3044e-08 8.5065e-09 0
2.2684e-08 9.5612e-09 0
2.241e-08 1.0754e-08 0
2.226e-08 1.2137e-08 0
2.2304e-08 1.3794e-08 0
2.2661e-08 1.5862e-08 0
2.3631e-08 1.8633e-08 0
2.563e-08 2.2695e-08 0
3.1602e-08 3.1174e-08 0
4.245e-08 5.2383e-08 0
0 0 0
0 0 0
0 0 0
0 0 0
0 0 0
0 0 0
0 0 0
0 0 0
0 0 0
0 0 0
0 0 0
0 0 0
0 0 0
0 0 0
0 0 0
0 0 0
0 0 0
0 0 0
0 0 0
0 0 0
0 0 0
0 0 0
0 0 0
0 0 0
0 0 0
0 0 0
0 0 0
0 0 0
0 0 0
0 0 0
0 0 0
1.4824e-06 -7.2045e-07 0
1.4708e-06 -7.0664e-07 0
1.4667e-06 -7.0849e-07 0
1.4783e-06 -7.2227e-07 0
1.475e-06 -7.0477e-07 0
1.4636e-06 -6.9091e-07 0
1.4593e-06 -6.9283e-07 0
1.468e-06 -6.8898e-07 0
1.4567e-06 -6.7504e-07 0
1.4522e-06 -6.7703e-07 0
1.4613e-06 -6.7303e-07 0
1.45e-06 -6.5901e-07 0
1.4453e-06 -6.6108e-07 0
1.4549e-06 -6.5691e-07 0
1.4437e-06 -6.4278e-07 0
1.4388e-06 -6.4494e-07 0
1.4488e-06 -6.4061e-07 0
1.4377e-06 -6.2637e-07 0
1.4325e-06 -6.2861e-07 0
1.4431e-06 -6.2412e-07 0
1.432e-06 -6.0977e-07 0
1.4266e-06 -6.1209e-07 0
1.4376e-06 -6.0745e-07 0
1.4266e-06 -5.9299e-07 0
1.4209e-06 -5.9538e-07 0
1.4324e-06 -5.906e-07 0
1.4214e-06 -5.7603e-07 0
1.4156e-06 -5.7849e-07 0
1.4275e-06 -5.7359e-07 0
1.4167e-06 -5.5892e-07 0
1.4106e-06 -5.6142e-07 0
1.423e-06 -5.5642e-07 0
1.4122e-06 -5.4165e-07 0
1.4059e-06 -5.4421e-07 0
1.4188e-06 -5.3911e-07 0
1.4081e-06 -5.2425e-07 0
1.4016e-06 -5.2684e-07 0
1.4149e-06 -5.2167e-07 0
1.4044e-06 -5.0672e-07 0
1.3976e-06 -5.0935e-07 0
1.4115e-06 -5.0412e-07 0
1.4011e-06 -4.8909e-07 0
1.3941e-06 -4.9174e-07 0
1.4084e-06 -4.8648e-07 0
1.3982e-06 -4.7137e-07 0
1.3909e-06 -4.7404e-07 0
1.4058e-06 -4.6875e-07 0
1.3958e-06 -4.5358e-07 0
1.3882e-06 -4.5625e-07 0
1.4037e-06 -4.5095e-07 0
1.394e-06 -4.3572e-07 0
1.3861e-06 -4.3839e-07 0
1.4021e-06 -4.331e-07 0
1.3926e-06 -4.1782e-07 0
1.3844e-06 -4.2048e-07 0
1.4011e-06 -4.1522e-07 0
1.3919e-06 -3.9989e-07 0
1.3834e-06 -4.0254e-07 0
1.4007e-06 -3.9731e-07 0
1.3918e-06 -3.8195e-07 0
1.383e-06 -3.8458e-07 0
1.401e-06 -3.7939e-07 0
1.3925e-06 -3.6401e-07 0
1.3833e-06 -3.666e-07 0
1.4021e-06 -3.6148e-07 0
1.394e-06 -3.4607e-07 0
1.3843e-06 -3.4864e-07 0
1.404e-06 -3.4358e-07 0
1.3964e-06 -3.2816e-07 0
1.3862e-06 -3.3069e-07 0
1.4068e-06 -3.257e-07 0
1.3997e-06 -3.1028e-07 0
1.3891e-06 -3.1277e-07 0
1.4107e-06 -3.0785e-07 0
1.4042e-06 -2.9242e-07 0
1.393e-06 -2.9488e-07 0
1.4157e-06 -2.9003e-07 0
1.4098e-06 -2.7461e-07 0
1.398e-06 -2.7704e-07 0
1.422e-06 -2.7224e-07 0
1.4168e-06 -2.5681e-07 0
1.4043e-06 -2.5922e-07 0
1.4298e-06 -2.5445e-07 0
1.4253e-06 -2.3901e-07 0
1.412e-06 -2.4142e-07 0
1.4391e-06 -2.3663e-07 0
1.4355e-06 -2.2116e-07 0
1.4213e-06 -2.236e-07 0
1.4503e-06 -2.1874e-07 0
1.4476e-06 -2.032e-07 0
1.4323e-06 -2.0571e-07 0
1.4551e-06 -6.9473e-07 0
1.4511e-06 -6.9661e-07 0
1.4627e-06 -7.1034e-07 0
1.4478e-06 -6.79e-07 0
1.4436e-06 -6.8095e-07 0
1.4408e-06 -6.6313e-07 0
1.4364e-06 -6.6516e-07 0
1.434e-06 -6.4707e-07 0
1.4294e-06 -6.4919e-07 0
1.4276e-06 -6.3083e-07 0
1.4228e-06 -6.3303e-07 0
1.4214e-06 -6.1439e-07 0
1.4164e-06 -6.1668e-07 0
1.4155e-06 -5.9775e-07 0
1.4103e-06 -6.0012e-07 0
1.41e-06 -5.8093e-07 0
1.4045e-06 -5.8338e-07 0
1.4047e-06 -5.6394e-07 0
1.3991e-06 -5.6645e-07 0
1.3998e-06 -5.4677e-07 0
1.3939e-06 -5.4934e-07 0
1.3952e-06 -5.2945e-07 0
1.3891e-06 -5.3208e-07 0
1.391e-06 -5.12e-07 0
1.3847e-06 -5.1467e-07 0
1.3872e-06 -4.9442e-07 0
1.3806e-06 -4.9713e-07 0
1.3838e-06 -4.7674e-07 0
1.377e-06 -4.7947e-07 0
1.3809e-06 -4.5896e-07 0
1.3738e-06 -4.6171e-07 0
1.3784e-06 -4.4111e-07 0
1.371e-06 -4.4387e-07 0
1.3765e-06 -4.232e-07 0
1.3688e-06 -4.2596e-07 0
1.3751e-06 -4.0524e-07 0
1.3671e-06 -4.08e-07 0
1.3744e-06 -3.8726e-07 0
1.366e-06 -3.9e-07 0
1.3743e-06 -3.6926e-07 0
1.3656e-06 -3.7198e-07 0
1.3749e-06 -3.5127e-07 0
1.3658e-06 -3.5396e-07 0
1.3764e-06 -3.3329e-07 0
1.3669e-06 -3.3595e-07 0
1.3788e-06 -3.1533e-07 0
1.3688e-06 -3.1796e-07 0
1.3821e-06 -2.9741e-07 0
1.3716e-06 -3e-07 0
1.3865e-06 -2.7953e-07 0
1.3754e-06 -2.8208e-07 0
1.3922e-06 -2.6168e-07 0
1.3804e-06 -2.642e-07 0
1.3991e-06 -2.4386e-07 0
1.3867e-06 -2.4636e-07 0
1.4076e-06 -2.2605e-07 0
1.3943e-06 -2.2854e-07 0
1.4176e-06 -2.0821e-07 0
1.4035e-06 -2.1072e-07 0
1.4295e-06 -1.9027e-07 0
1.4144e-06 -1.9285e-07 0
1.4395e-06 -6.8289e-07 0
1.4355e-06 -6.848e-07 0
1.4472e-06 -6.9847e-07 0
1.4321e-06 -6.6718e-07 0
1.428e-06 -6.6917e-07 0
1.425e-06 -6.5129e-07 0
1.4207e-06 -6.5338e-07 0
1.4181e-06 -6.3522e-07 0
1.4136e-06 -6.374e-07 0
1.4116e-06 -6.1895e-07 0
1.4069e-06 -6.2122e-07 0
1.4053e-06 -6.0249e-07 0
1.4004e-06 -6.0484e-07 0
1.3993e-06 -5.8582e-07 0
1.3942e-06 -5.8825e-07 0
1.3936e-06 -5.6896e-07 0
1.3884e-06 -5.7147e-07 0
1.3883e-06 -5.5192e-07 0
1.3828e-06 -5.545e-07 0
1.3832e-06 -5.3471e-07 0
1.3775e-06 -5.3736e-07 0
1.3786e-06 -5.1735e-07 0
1.3726e-06 -5.2005e-07 0
1.3743e-06 -4.9985e-07 0
1.3681e-06 -5.0259e-07 0
1.3704e-06 -4.8222e-07 0
1.364e-06 -4.85e-07 0
1.3669e-06 -4.6449e-07 0
1.3602e-06 -4.6729e-07 0
1.3639e-06 -4.4666e-07 0
1.3569e-06 -4.4949e-07 0
1.3613e-06 -4.2876e-07 0
1.3541e-06 -4.316e-07 0
1.3593e-06 -4.108e-07 0
1.3518e-06 -4.1364e-07 0
1.3579e-06 -3.9279e-07 0
1.3501e-06 -3.9563e-07 0
1.3571e-06 -3.7476e-07 0
1.3489e-06 -3.7758e-07 0
1.357e-06 -3.5671e-07 0
1.3484e-06 -3.5952e-07 0
1.3576e-06 -3.3867e-07 0
1.3487e-06 -3.4145e-07 0
1.3591e-06 -3.2065e-07 0
1.3497e-06 -3.2339e-07 0
1.3614e-06 -3.0265e-07 0
1.3515e-06 -3.0536e-07 0
1.3647e-06 -2.8469e-07 0
1.3543e-06 -2.8736e-07 0
1.3691e-06 -2.6677e-07 0
1.3581e-06 -2.694e-07 0
1.3746e-06 -2.489e-07 0
1.363e-06 -2.5149e-07 0
1.3815e-06 -2.3106e-07 0
1.3692e-06 -2.3363e-07 0
1.3899e-06 -2.1324e-07 0
1.3767e-06 -2.1579e-07 0
1.3998e-06 -1.9541e-07 0
1.3858e-06 -1.9798e-07 0
1.4115e-06 -1.7752e-07 0
1.3965e-06 -1.8014e-07 0
1.4239e-06 -6.7115e-07 0
1.42e-06 -6.7309e-07 0
1.4317e-06 -6.8668e-07 0
1.4165e-06 -6.5545e-07 0
1.4124e-06 -6.575e-07 0
1.4093e-06 -6.3956e-07 0
1.4051e-06 -6.4171e-07 0
1.4024e-06 -6.2348e-07 0
1.398e-06 -6.2572e-07 0
1.3957e-06 -6.0718e-07 0
1.3911e-06 -6.0952e-07 0
1.3893e-06 -5.9068e-07 0
1.3846e-06 -5.931e-07 0
1.3833e-06 -5.7398e-07 0
1.3783e-06 -5.7648e-07 0
1.3775e-06 -5.5708e-07 0
1.3724e-06 -5.5966e-07 0
1.372e-06 -5.4e-07 0
1.3667e-06 -5.4265e-07 0
1.3669e-06 -5.2275e-07 0
1.3614e-06 -5.2547e-07 0
1.3621e-06 -5.0535e-07 0
1.3564e-06 -5.0812e-07 0
1.3578e-06 -4.878e-07 0
1.3518e-06 -4.9061e-07 0
1.3538e-06 -4.7013e-07 0
1.3475e-06 -4.7298e-07 0
1.3502e-06 -4.5234e-07 0
1.3437e-06 -4.5523e-07 0
1.3471e-06 -4.3447e-07 0
1.3404e-06 -4.3737e-07 0
1.3445e-06 -4.1652e-07 0
1.3375e-06 -4.1943e-07 0
1.3425e-06 -3.9851e-07 0
1.3351e-06 -4.0143e-07 0
1.341e-06 -3.8046e-07 0
1.3333e-06 -3.8337e-07 0
1.3401e-06 -3.6238e-07 0
1.3321e-06 -3.6528e-07 0
1.34e-06 -3.4429e-07 0
1.3316e-06 -3.4717e-07 0
1.3406e-06 -3.262e-07 0
1.3317e-06 -3.2906e-07 0
1.3419e-06 -3.0813e-07 0
1.3327e-06 -3.1096e-07 0
1.3442e-06 -2.9009e-07 0
1.3345e-06 -2.9288e-07 0
1.3475e-06 -2.7209e-07 0
1.3372e-06 -2.7484e-07 0
1.3518e-06 -2.5414e-07 0
1.3409e-06 -2.5684e-07 0
1.3573e-06 -2.3624e-07 0
1.3458e-06 -2.389e-07 0
1.364e-06 -2.1838e-07 0
1.3518e-06 -2.21e-07 0
1.3723e-06 -2.0055e-07 0
1.3592e-06 -2.0316e-07 0
1.3821e-06 -1.8274e-07 0
1.3682e-06 -1.8535e-07 0
1.3936e-06 -1.6491e-07 0
1.3787e-06 -1.6755e-07 0
1.4085e-06 -6.5952e-07 0
1.4047e-06 -6.615e-07 0
1.4163e-06 -6.7499e-07 0
1.401e-06 -6.4384e-07 0
1.397e-06 -6.4594e-07 0
1.3937e-06 -6.2795e-07 0
1.3896e-06 -6.3016e-07 0
1.3867e-06 -6.1184e-07 0
1.3824e-06 -6.1416e-07 0
1.38e-06 -5.9552e-07 0
1.3755e-06 -5.9793e-07 0
1.3735e-06 -5.7899e-07 0
1.3689e-06 -5.8149e-07 0
1.3674e-06 -5.6225e-07 0
1.3625e-06 -5.6483e-07 0
1.3615e-06 -5.4531e-07 0
1.3565e-06 -5.4797e-07 0
1.356e-06 -5.2819e-07 0
1.3508e-06 -5.3092e-07 0
1.3508e-06 -5.1089e-07 0
1.3454e-06 -5.1368e-07 0
1.3459e-06 -4.9344e-07 0
1.3403e-06 -4.9629e-07 0
1.3415e-06 -4.7585e-07 0
1.3356e-06 -4.7874e-07 0
1.3374e-06 -4.5813e-07 0
1.3313e-06 -4.6106e-07 0
1.3338e-06 -4.403e-07 0
1.3274e-06 -4.4326e-07 0
1.3306e-06 -4.2238e-07 0
1.324e-06 -4.2536e-07 0
1.328e-06 -4.0439e-07 0
1.321e-06 -4.0738e-07 0
1.3258e-06 -3.8633e-07 0
1.3186e-06 -3.8933e-07 0
1.3243e-06 -3.6823e-07 0
1.3167e-06 -3.7122e-07 0
1.3234e-06 -3.501e-07 0
1.3155e-06 -3.5308e-07 0
1.3232e-06 -3.3197e-07 0
1.3149e-06 -3.3493e-07 0
1.3237e-06 -3.1384e-07 0
1.315e-06 -3.1677e-07 0
1.325e-06 -2.9572e-07 0
1.3159e-06 -2.9862e-07 0
1.3272e-06 -2.7764e-07 0
1.3176e-06 -2.805e-07 0
1.3304e-06 -2.596e-07 0
1.3202e-06 -2.6241e-07 0
1.3346e-06 -2.4161e-07 0
1.3239e-06 -2.4438e-07 0
1.34e-06 -2.2367e-07 0
1.3286e-06 -2.264e-07 0
1.3467e-06 -2.058e-07 0
1.3346e-06 -2.0848e-07 0
1.3548e-06 -1.8797e-07 0
1.3419e-06 -1.9062e-07 0
1.3644e-06 -1.7018e-07 0
1.3507e-06 -1.7281e-07 0
1.3758e-06 -1.5242e-07 0
1.3611e-06 -1.5506e-07 0
1.3931e-06 -6.4801e-07 0
1.3893e-06 -6.5004e-07 0
1.4009e-06 -6.6343e-07 0
1.3855e-06 -6.3235e-07 0
1.3816e-06 -6.3452e-07 0
1.3782e-06 -6.1646e-07 0
1.3741e-06 -6.1874e-07 0
1.3712e-06 -6.0033e-07 0
1.3669e-06 -6.0272e-07 0
1.3644e-06 -5.8398e-07 0
1.36e-06 -5.8647e-07 0
1.3579e-06 -5.6741e-07 0
1.3533e-06 -5.6999e-07 0
1.3516e-06 -5.5063e-07 0
1.3469e-06 -5.5329e-07 0
1.3457e-06 -5.3365e-07 0
1.3408e-06 -5.3639e-07 0
1.3401e-06 -5.1648e-07 0
1.335e-06 -5.1929e-07 0
1.3348e-06 -4.9914e-07 0
1.3295e-06 -5.0201e-07 0
1.3299e-06 -4.8165e-07 0
1.3244e-06 -4.8457e-07 0
1.3254e-06 -4.6401e-07 0
1.3196e-06 -4.6697e-07 0
1.3212e-06 -4.4624e-07 0
1.3152e-06 -4.4924e-07 0
1.3175e-06 -4.2837e-07 0
1.3113e-06 -4.314e-07 0
1.3143e-06 -4.104e-07 0
1.3078e-06 -4.1345e-07 0
1.3116e-06 -3.9236e-07 0
1.3048e-06 -3.9542e-07 0
1.3094e-06 -3.7425e-07 0
1.3023e-06 -3.7732e-07 0
1.3078e-06 -3.5611e-07 0
1.3003e-06 -3.5917e-07 0
1.3068e-06 -3.3793e-07 0
1.299e-06 -3.4099e-07 0
1.3065e-06 -3.1975e-07 0
1.2984e-06 -3.2278e-07 0
1.307e-06 -3.0157e-07 0
1.2984e-06 -3.0458e-07 0
1.3083e-06 -2.8341e-07 0
1.2992e-06 -2.8638e-07 0
1.3104e-06 -2.6528e-07 0
1.3009e-06 -2.6821e-07 0
1.3135e-06 -2.472e-07 0
1.3034e-06 -2.5008e-07 0
1.3176e-06 -2.2917e-07 0
1.307e-06 -2.32e-07 0
1.3229e-06 -2.112e-07 0
1.3116e-06 -2.1398e-07 0
1.3295e-06 -1.933e-07 0
1.3175e-06 -1.9603e-07 0
1.3374e-06 -1.7547e-07 0
1.3246e-06 -1.7815e-07 0
1.3469e-06 -1.577e-07 0
1.3333e-06 -1.6036e-07 0
1.3581e-06 -1.4001e-07 0
1.3435e-06 -1.4265e-07 0
1.3778e-06 -6.3664e-07 0
1.3741e-06 -6.3873e-07 0
1.3857e-06 -6.5201e-07 0
1.3702e-06 -6.21e-07 0
1.3663e-06 -6.2323e-07 0
1.3628e-06 -6.051e-07 0
1.3588e-06 -6.0746e-07 0
1.3557e-06 -5.8895e-07 0
1.3516e-06 -5.9142e-07 0
1.3489e-06 -5.7257e-07 0
1.3445e-06 -5.7514e-07 0
1.3423e-06 -5.5595e-07 0
1.3378e-06 -5.5862e-07 0
1.336e-06 -5.3913e-07 0
1.3313e-06 -5.4188e-07 0
1.33e-06 -5.221e-07 0
1.3252e-06 -5.2492e-07 0
1.3243e-06 -5.0489e-07 0
1.3193e-06 -5.0778e-07 0
1.319e-06 -4.875e-07 0
1.3137e-06 -4.9045e-07 0
1.314e-06 -4.6995e-07 0
1.3085e-06 -4.7295e-07 0
1.3094e-06 -4.5227e-07 0
1.3037e-06 -4.5531e-07 0
1.3052e-06 -4.3445e-07 0
1.2993e-06 -4.3753e-07 0
1.3014e-06 -4.1653e-07 0
1.2953e-06 -4.1964e-07 0
1.2981e-06 -3.9852e-07 0
1.2917e-06 -4.0164e-07 0
1.2954e-06 -3.8043e-07 0
1.2886e-06 -3.8357e-07 0
1.2931e-06 -3.6228e-07 0
1.2861e-06 -3.6542e-07 0
1.2914e-06 -3.4408e-07 0
1.2841e-06 -3.4722e-07 0
1.2904e-06 -3.2586e-07 0
1.2827e-06 -3.2899e-07 0
1.2901e-06 -3.0763e-07 0
1.282e-06 -3.1073e-07 0
1.2905e-06 -2.894e-07 0
1.282e-06 -2.9247e-07 0
1.2916e-06 -2.7119e-07 0
1.2827e-06 -2.7423e-07 0
1.2937e-06 -2.5301e-07 0
1.2843e-06 -2.5601e-07 0
1.2967e-06 -2.3488e-07 0
1.2867e-06 -2.3783e-07 0
1.3007e-06 -2.1681e-07 0
1.2902e-06 -2.197e-07 0
1.3059e-06 -1.9881e-07 0
1.2948e-06 -2.0164e-07 0
1.3123e-06 -1.8088e-07 0
1.3005e-06 -1.8365e-07 0
1.3201e-06 -1.6304e-07 0
1.3075e-06 -1.6576e-07 0
1.3295e-06 -1.453e-07 0
1.316e-06 -1.4797e-07 0
1.3405e-06 -1.2767e-07 0
1.3261e-06 -1.3029e-07 0
1.3626e-06 -6.2543e-07 0
1.3589e-06 -6.2758e-07 0
1.3705e-06 -6.4076e-07 0
1.3549e-06 -6.0979e-07 0
1.3511e-06 -6.121e-07 0
1.3475e-06 -5.9388e-07 0
1.3435e-06 -5.9632e-07 0
1.3403e-06 -5.7771e-07 0
1.3362e-06 -5.8026e-07 0
1.3334e-06 -5.6128e-07 0
1.3292e-06 -5.6394e-07 0
1.3268e-06 -5.4463e-07 0
1.3224e-06 -5.4738e-07 0
1.3205e-06 -5.2775e-07 0
1.3159e-06 -5.3058e-07 0
1.3144e-06 -5.1067e-07 0
1.3096e-06 -5.1358e-07 0
1.3087e-06 -4.9341e-07 0
1.3037e-06 -4.9638e-07 0
1.3033e-06 -4.7597e-07 0
1.2981e-06 -4.79e-07 0
1.2982e-06 -4.5837e-07 0
1.2928e-06 -4.6145e-07 0
1.2935e-06 -4.4063e-07 0
1.2879e-06 -4.4375e-07 0
1.2893e-06 -4.2277e-07 0
1.2834e-06 -4.2593e-07 0
1.2854e-06 -4.048e-07 0
1.2794e-06 -4.0798e-07 0
1.2821e-06 -3.8674e-07 0
1.2757e-06 -3.8994e-07 0
1.2792e-06 -3.686e-07 0
1.2726e-06 -3.7181e-07 0
1.2769e-06 -3.504e-07 0
1.27e-06 -3.5361e-07 0
1.2752e-06 -3.3215e-07 0
1.2679e-06 -3.3536e-07 0
1.2741e-06 -3.1388e-07 0
1.2665e-06 -3.1707e-07 0
1.2737e-06 -2.956e-07 0
1.2657e-06 -2.9877e-07 0
1.274e-06 -2.7732e-07 0
1.2656e-06 -2.8046e-07 0
1.2751e-06 -2.5905e-07 0
1.2663e-06 -2.6216e-07 0
1.2771e-06 -2.4083e-07 0
1.2678e-06 -2.4388e-07 0
1.28e-06 -2.2265e-07 0
1.2701e-06 -2.2565e-07 0
1.284e-06 -2.0453e-07 0
1.2735e-06 -2.0747e-07 0
1.289e-06 -1.8648e-07 0
1.2779e-06 -1.8936e-07 0
1.2953e-06 -1.6852e-07 0
1.2835e-06 -1.7134e-07 0
1.303e-06 -1.5067e-07 0
1.2904e-06 -1.5342e-07 0
1.3121e-06 -1.3294e-07 0
1.2988e-06 -1.3562e-07 0
1.323e-06 -1.1536e-07 0
1.3087e-06 -1.1797e-07 0
1.3474e-06 -6.1437e-07 0
1.3438e-06 -6.1661e-07 0
1.3553e-06 -6.2968e-07 0
1.3397e-06 -5.9874e-07 0
1.3359e-06 -6.0113e-07 0
1.3322e-06 -5.8281e-07 0
1.3283e-06 -5.8534e-07 0
1.325e-06 -5.666e-07 0
1.321e-06 -5.6924e-07 0
1.3181e-06 -5.5013e-07 0
1.3139e-06 -5.5288e-07 0
1.3114e-06 -5.3342e-07 0
1.307e-06 -5.3627e-07 0
1.305e-06 -5.165e-07 0
1.3004e-06 -5.1942e-07 0
1.2989e-06 -4.9936e-07 0
1.2942e-06 -5.0236e-07 0
1.2931e-06 -4.8204e-07 0
1.2882e-06 -4.851e-07 0
1.2876e-06 -4.6455e-07 0
1.2825e-06 -4.6766e-07 0
1.2825e-06 -4.469e-07 0
1.2772e-06 -4.5006e-07 0
1.2778e-06 -4.2911e-07 0
1.2722e-06 -4.3231e-07 0
1.2734e-06 -4.1119e-07 0
1.2677e-06 -4.1442e-07 0
1.2695e-06 -3.9317e-07 0
1.2635e-06 -3.9642e-07 0
1.2661e-06 -3.7505e-07 0
1.2598e-06 -3.7833e-07 0
1.2632e-06 -3.5686e-07 0
1.2566e-06 -3.6014e-07 0
1.2608e-06 -3.3861e-07 0
1.254e-06 -3.4189e-07 0
1.2591e-06 -3.2031e-07 0
1.2518e-06 -3.2359e-07 0
1.2579e-06 -3.0199e-07 0
1.2503e-06 -3.0525e-07 0
1.2574e-06 -2.8365e-07 0
1.2495e-06 -2.8689e-07 0
1.2577e-06 -2.6532e-07 0
1.2493e-06 -2.6853e-07 0
1.2587e-06 -2.47e-07 0
1.2499e-06 -2.5017e-07 0
1.2606e-06 -2.2871e-07 0
1.2513e-06 -2.3184e-07 0
1.2634e-06 -2.1048e-07 0
1.2536e-06 -2.1355e-07 0
1.2672e-06 -1.9231e-07 0
1.2569e-06 -1.9531e-07 0
1.2722e-06 -1.7422e-07 0
1.2612e-06 -1.7715e-07 0
1.2783e-06 -1.5622e-07 0
1.2667e-06 -1.5908e-07 0
1.2859e-06 -1.3835e-07 0
1.2734e-06 -1.4113e-07 0
1.2949e-06 -1.2062e-07 0
1.2816e-06 -1.2331e-07 0
1.3055e-06 -1.0306e-07 0
1.2913e-06 -1.0567e-07 0
1.3322e-06 -6.035e-07 0
1.3286e-06 -6.0582e-07 0
1.3402e-06 -6.188e-07 0
1.3245e-06 -5.8785e-07 0
1.3208e-06 -5.9034e-07 0
1.317e-06 -5.7188e-07 0
1.3131e-06 -5.7451e-07 0
1.3098e-06 -5.5563e-07 0
1.3057e-06 -5.5838e-07 0
1.3028e-06 -5.3911e-07 0
1.2986e-06 -5.4196e-07 0
1.296e-06 -5.2235e-07 0
1.2917e-06 -5.2529e-07 0
1.2895e-06 -5.0537e-07 0
1.2851e-06 -5.0838e-07 0
1.2834e-06 -4.8817e-07 0
1.2787e-06 -4.9126e-07 0
1.2775e-06 -4.7079e-07 0
1.2727e-06 -4.7394e-07 0
1.272e-06 -4.5324e-07 0
1.2669e-06 -4.5644e-07 0
1.2668e-06 -4.3553e-07 0
1.2615e-06 -4.3877e-07 0
1.262e-06 -4.1768e-07 0
1.2565e-06 -4.2096e-07 0
1.2576e-06 -3.9971e-07 0
1.2519e-06 -4.0302e-07 0
1.2537e-06 -3.8163e-07 0
1.2477e-06 -3.8497e-07 0
1.2502e-06 -3.6346e-07 0
1.244e-06 -3.6681e-07 0
1.2472e-06 -3.4522e-07 0
1.2407e-06 -3.4858e-07 0
1.2448e-06 -3.2691e-07 0
1.238e-06 -3.3027e-07 0
1.243e-06 -3.0856e-07 0
1.2358e-06 -3.1192e-07 0
1.2417e-06 -2.9018e-07 0
1.2342e-06 -2.9352e-07 0
1.2412e-06 -2.7179e-07 0
1.2333e-06 -2.751e-07 0
1.2413e-06 -2.534e-07 0
1.233e-06 -2.5668e-07 0
1.2423e-06 -2.3502e-07 0
1.2335e-06 -2.3826e-07 0
1.2441e-06 -2.1668e-07 0
1.2349e-06 -2.1987e-07 0
1.2468e-06 -1.9838e-07 0
1.2371e-06 -2.0152e-07 0
1.2506e-06 -1.8015e-07 0
1.2403e-06 -1.8322e-07 0
1.2554e-06 -1.6201e-07 0
1.2445e-06 -1.65e-07 0
1.2614e-06 -1.4397e-07 0
1.2498e-06 -1.4688e-07 0
1.2688e-06 -1.2606e-07 0
1.2564e-06 -1.2888e-07 0
1.2776e-06 -1.0832e-07 0
1.2644e-06 -1.1103e-07 0
1.2881e-06 -9.0769e-08 0
1.274e-06 -9.3367e-08 0
1.3171e-06 -5.928e-07 0
1.3135e-06 -5.9524e-07 0
1.3251e-06 -6.0811e-07 0
1.3093e-06 -5.7712e-07 0
1.3056e-06 -5.7971e-07 0
1.3018e-06 -5.6111e-07 0
1.2979e-06 -5.6384e-07 0
1.2945e-06 -5.4481e-07 0
1.2905e-06 -5.4766e-07 0
1.2874e-06 -5.2823e-07 0
1.2833e-06 -5.3118e-07 0
1.2807e-06 -5.1141e-07 0
1.2763e-06 -5.1445e-07 0
1.2741e-06 -4.9436e-07 0
1.2697e-06 -4.9747e-07 0
1.2679e-06 -4.771e-07 0
1.2633e-06 -4.8028e-07 0
1.262e-06 -4.5965e-07 0
1.2571e-06 -4.6289e-07 0
1.2564e-06 -4.4204e-07 0
1.2514e-06 -4.4532e-07 0
1.2512e-06 -4.2427e-07 0
1.2459e-06 -4.276e-07 0
1.2463e-06 -4.0636e-07 0
1.2408e-06 -4.0972e-07 0
1.2419e-06 -3.8833e-07 0
1.2362e-06 -3.9172e-07 0
1.2379e-06 -3.702e-07 0
1.2319e-06 -3.7361e-07 0
1.2343e-06 -3.5197e-07 0
1.2281e-06 -3.554e-07 0
1.2313e-06 -3.3367e-07 0
1.2248e-06 -3.371e-07 0
1.2288e-06 -3.1531e-07 0
1.222e-06 -3.1874e-07 0
1.2269e-06 -2.969e-07 0
1.2197e-06 -3.0033e-07 0
1.2256e-06 -2.7847e-07 0
1.2181e-06 -2.8187e-07 0
1.2249e-06 -2.6001e-07 0
1.2171e-06 -2.634e-07 0
1.225e-06 -2.4156e-07 0
1.2168e-06 -2.4491e-07 0
1.2259e-06 -2.2312e-07 0
1.2172e-06 -2.2643e-07 0
1.2276e-06 -2.0471e-07 0
1.2184e-06 -2.0797e-07 0
1.2303e-06 -1.8635e-07 0
1.2206e-06 -1.8955e-07 0
1.2339e-06 -1.6806e-07 0
1.2236e-06 -1.7119e-07 0
1.2386e-06 -1.4986e-07 0
1.2277e-06 -1.529e-07 0
1.2445e-06 -1.3176e-07 0
1.233e-06 -1.3472e-07 0
1.2517e-06 -1.1381e-07 0
1.2395e-06 -1.1666e-07 0
1.2604e-06 -9.6029e-08 0
1.2473e-06 -9.8764e-08 0
1.2706e-06 -7.8463e-08 0
1.2566e-06 -8.1064e-08 0
1.302e-06 -5.8229e-07 0
1.2983e-06 -5.8485e-07 0
1.31e-06 -5.9764e-07 0
1.2942e-06 -5.6657e-07 0
1.2904e-06 -5.6928e-07 0
1.2866e-06 -5.505e-07 0
1.2827e-06 -5.5334e-07 0
1.2792e-06 -5.3413e-07 0
1.2752e-06 -5.3709e-07 0
1.2721e-06 -5.1749e-07 0
1.268e-06 -5.2054e-07 0
1.2653e-06 -5.006e-07 0
1.261e-06 -5.0373e-07 0
1.2587e-06 -4.8348e-07 0
1.2542e-06 -4.8669e-07 0
1.2524e-06 -4.6615e-07 0
1.2478e-06 -4.6942e-07 0
1.2464e-06 -4.4863e-07 0
1.2416e-06 -4.5196e-07 0
1.2408e-06 -4.3095e-07 0
1.2358e-06 -4.3432e-07 0
1.2355e-06 -4.1311e-07 0
1.2303e-06 -4.1653e-07 0
1.2306e-06 -3.9514e-07 0
1.2251e-06 -3.9859e-07 0
1.2261e-06 -3.7705e-07 0
1.2204e-06 -3.8052e-07 0
1.222e-06 -3.5886e-07 0
1.2161e-06 -3.6235e-07 0
1.2184e-06 -3.4057e-07 0
1.2122e-06 -3.4408e-07 0
1.2153e-06 -3.2222e-07 0
1.2088e-06 -3.2573e-07 0
1.2127e-06 -3.038e-07 0
1.2059e-06 -3.073e-07 0
1.2108e-06 -2.8533e-07 0
1.2036e-06 -2.8883e-07 0
1.2094e-06 -2.6683e-07 0
1.2019e-06 -2.7032e-07 0
1.2087e-06 -2.4832e-07 0
1.2008e-06 -2.5178e-07 0
1.2087e-06 -2.298e-07 0
1.2005e-06 -2.3323e-07 0
1.2095e-06 -2.1129e-07 0
1.2008e-06 -2.1468e-07 0
1.2112e-06 -1.9282e-07 0
1.202e-06 -1.9615e-07 0
1.2137e-06 -1.7439e-07 0
1.204e-06 -1.7766e-07 0
1.2172e-06 -1.5603e-07 0
1.207e-06 -1.5922e-07 0
1.2218e-06 -1.3775e-07 0
1.211e-06 -1.4086e-07 0
1.2276e-06 -1.1959e-07 0
1.2161e-06 -1.226e-07 0
1.2347e-06 -1.0158e-07 0
1.2224e-06 -1.0448e-07 0
1.2431e-06 -8.3745e-08 0
1.2301e-06 -8.6511e-08 0
1.2532e-06 -6.6136e-08 0
1.2393e-06 -6.8751e-08 0
1.2868e-06 -5.7198e-07 0
1.2831e-06 -5.7467e-07 0
1.2948e-06 -5.8738e-07 0
1.2789e-06 -5.5618e-07 0
1.2752e-06 -5.5902e-07 0
1.2713e-06 -5.4005e-07 0
1.2674e-06 -5.4301e-07 0
1.2639e-06 -5.2361e-07 0
1.2599e-06 -5.2668e-07 0
1.2568e-06 -5.0689e-07 0
1.2526e-06 -5.1005e-07 0
1.2499e-06 -4.8991e-07 0
1.2456e-06 -4.9316e-07 0
1.2432e-06 -4.7271e-07 0
1.2388e-06 -4.7603e-07 0
1.2369e-06 -4.5531e-07 0
1.2323e-06 -4.5868e-07 0
1.2308e-06 -4.3772e-07 0
1.226e-06 -4.4114e-07 0
1.2251e-06 -4.1997e-07 0
1.2201e-06 -4.2343e-07 0
1.2198e-06 -4.0206e-07 0
1.2146e-06 -4.0556e-07 0
1.2148e-06 -3.8403e-07 0
1.2093e-06 -3.8756e-07 0
1.2102e-06 -3.6587e-07 0
1.2045e-06 -3.6943e-07 0
1.2061e-06 -3.4762e-07 0
1.2002e-06 -3.5119e-07 0
1.2024e-06 -3.2927e-07 0
1.1962e-06 -3.3285e-07 0
1.1993e-06 -3.1085e-07 0
1.1928e-06 -3.1444e-07 0
1.1967e-06 -2.9237e-07 0
1.1898e-06 -2.9596e-07 0
1.1946e-06 -2.7385e-07 0
1.1875e-06 -2.7742e-07 0
1.1932e-06 -2.5529e-07 0
1.1857e-06 -2.5885e-07 0
1.1924e-06 -2.3671e-07 0
1.1845e-06 -2.4024e-07 0
1.1924e-06 -2.1812e-07 0
1.1841e-06 -2.2163e-07 0
1.1931e-06 -1.9955e-07 0
1.1844e-06 -2.0301e-07 0
1.1946e-06 -1.81e-07 0
1.1855e-06 -1.8441e-07 0
1.1971e-06 -1.6249e-07 0
1.1874e-06 -1.6584e-07 0
1.2005e-06 -1.4405e-07 0
1.1903e-06 -1.4732e-07 0
1.205e-06 -1.257e-07 0
1.1942e-06 -1.2888e-07 0
1.2106e-06 -1.0746e-07 0
1.1992e-06 -1.1053e-07 0
1.2175e-06 -8.9368e-08 0
1.2054e-06 -9.2318e-08 0
1.2258e-06 -7.146e-08 0
1.2129e-06 -7.4267e-08 0
1.2357e-06 -5.3784e-08 0
1.2218e-06 -5.6425e-08 0
1.2715e-06 -5.6186e-07 0
1.2678e-06 -5.6469e-07 0
1.2796e-06 -5.7735e-07 0
1.2636e-06 -5.4598e-07 0
1.2599e-06 -5.4896e-07 0
1.256e-06 -5.2976e-07 0
1.2521e-06 -5.3285e-07 0
1.2485e-06 -5.1323e-07 0
1.2445e-06 -5.1642e-07 0
1.2413e-06 -4.9642e-07 0
1.2372e-06 -4.997e-07 0
1.2344e-06 -4.7936e-07 0
1.2301e-06 -4.8271e-07 0
1.2277e-06 -4.6208e-07 0
1.2232e-06 -4.6549e-07 0
1.2213e-06 -4.4459e-07 0
1.2166e-06 -4.4806e-07 0
1.2152e-06 -4.2692e-07 0
1.2103e-06 -4.3044e-07 0
1.2094e-06 -4.0909e-07 0
1.2044e-06 -4.1265e-07 0
1.204e-06 -3.9111e-07 0
1.1987e-06 -3.947e-07 0
1.199e-06 -3.7301e-07 0
1.1935e-06 -3.7662e-07 0
1.1943e-06 -3.5479e-07 0
1.1886e-06 -3.5843e-07 0
1.1901e-06 -3.3647e-07 0
1.1842e-06 -3.4012e-07 0
1.1864e-06 -3.1806e-07 0
1.1802e-06 -3.2172e-07 0
1.1832e-06 -2.9958e-07 0
1.1766e-06 -3.0325e-07 0
1.1805e-06 -2.8104e-07 0
1.1736e-06 -2.8471e-07 0
1.1784e-06 -2.6246e-07 0
1.1712e-06 -2.6611e-07 0
1.1769e-06 -2.4383e-07 0
1.1694e-06 -2.4747e-07 0
1.176e-06 -2.2519e-07 0
1.1682e-06 -2.288e-07 0
1.1759e-06 -2.0653e-07 0
1.1676e-06 -2.1011e-07 0
1.1766e-06 -1.8788e-07 0
1.1679e-06 -1.9142e-07 0
1.178e-06 -1.6925e-07 0
1.1689e-06 -1.7274e-07 0
1.1804e-06 -1.5067e-07 0
1.1707e-06 -1.5409e-07 0
1.1837e-06 -1.3214e-07 0
1.1735e-06 -1.3548e-07 0
1.1881e-06 -1.1369e-07 0
1.1773e-06 -1.1695e-07 0
1.1936e-06 -9.5363e-08 0
1.1821e-06 -9.8505e-08 0
1.2003e-06 -7.7176e-08 0
1.1882e-06 -8.0188e-08 0
1.2085e-06 -5.9173e-08 0
1.1955e-06 -6.2033e-08 0
1.2181e-06 -4.1402e-08 0
1.2043e-06 -4.4083e-08 0
1.2561e-06 -5.5194e-07 0
1.2525e-06 -5.5493e-07 0
1.2642e-06 -5.6753e-07 0
1.2483e-06 -5.3596e-07 0
1.2445e-06 -5.3908e-07 0
1.2406e-06 -5.1963e-07 0
1.2366e-06 -5.2286e-07 0
1.2331e-06 -5.03e-07 0
1.229e-06 -5.0632e-07 0
1.2258e-06 -4.8609e-07 0
1.2216e-06 -4.8949e-07 0
1.2188e-06 -4.6893e-07 0
1.2145e-06 -4.724e-07 0
1.2121e-06 -4.5156e-07 0
1.2076e-06 -4.5508e-07 0
1.2056e-06 -4.3398e-07 0
1.2009e-06 -4.3755e-07 0
1.1994e-06 -4.1623e-07 0
1.1946e-06 -4.1984e-07 0
1.1936e-06 -3.9832e-07 0
1.1885e-06 -4.0197e-07 0
1.1881e-06 -3.8027e-07 0
1.1828e-06 -3.8394e-07 0
1.183e-06 -3.6209e-07 0
1.1775e-06 -3.6579e-07 0
1.1783e-06 -3.4381e-07 0
1.1726e-06 -3.4752e-07 0
1.174e-06 -3.2542e-07 0
1.168e-06 -3.2915e-07 0
1.1702e-06 -3.0695e-07 0
1.164e-06 -3.1069e-07 0
1.167e-06 -2.8841e-07 0
1.1604e-06 -2.9215e-07 0
1.1642e-06 -2.6981e-07 0
1.1573e-06 -2.7355e-07 0
1.162e-06 -2.5116e-07 0
1.1548e-06 -2.5489e-07 0
1.1605e-06 -2.3247e-07 0
1.1529e-06 -2.3618e-07 0
1.1596e-06 -2.1375e-07 0
1.1516e-06 -2.1745e-07 0
1.1594e-06 -1.9502e-07 0
1.151e-06 -1.9869e-07 0
1.1599e-06 -1.763e-07 0
1.1512e-06 -1.7992e-07 0
1.1613e-06 -1.5759e-07 0
1.1521e-06 -1.6116e-07 0
1.1636e-06 -1.3891e-07 0
1.1539e-06 -1.4242e-07 0
1.1668e-06 -1.2029e-07 0
1.1566e-06 -1.2372e-07 0
1.171e-06 -1.0174e-07 0
1.1602e-06 -1.0508e-07 0
1.1764e-06 -8.3305e-08 0
1.165e-06 -8.6525e-08 0
1.183e-06 -6.5005e-08 0
1.1709e-06 -6.809e-08 0
1.191e-06 -4.6885e-08 0
1.1781e-06 -4.981e-08 0
1.2004e-06 -2.8991e-08 0
1.1866e-06 -3.1727e-08 0
1.2407e-06 -5.4222e-07 0
1.2369e-06 -5.4538e-07 0
1.2488e-06 -5.5794e-07 0
1.2328e-06 -5.2611e-07 0
1.2289e-06 -5.2939e-07 0
1.225e-06 -5.0967e-07 0
1.2211e-06 -5.1304e-07 0
1.2175e-06 -4.9292e-07 0
1.2134e-06 -4.9637e-07 0
1.2102e-06 -4.759e-07 0
1.2059e-06 -4.7942e-07 0
1.2031e-06 -4.5863e-07 0
1.1987e-06 -4.6222e-07 0
1.1963e-06 -4.4116e-07 0
1.1917e-06 -4.4479e-07 0
1.1898e-06 -4.2349e-07 0
1.185e-06 -4.2716e-07 0
1.1835e-06 -4.0565e-07 0
1.1786e-06 -4.0936e-07 0
1.1776e-06 -3.8765e-07 0
1.1725e-06 -3.9139e-07 0
1.1721e-06 -3.6952e-07 0
1.1667e-06 -3.7329e-07 0
1.1669e-06 -3.5127e-07 0
1.1613e-06 -3.5506e-07 0
1.1621e-06 -3.3292e-07 0
1.1563e-06 -3.3672e-07 0
1.1578e-06 -3.1447e-07 0
1.1518e-06 -3.1828e-07 0
1.1539e-06 -2.9594e-07 0
1.1476e-06 -2.9975e-07 0
1.1506e-06 -2.7733e-07 0
1.144e-06 -2.8115e-07 0
1.1478e-06 -2.5867e-07 0
1.1408e-06 -2.6249e-07 0
1.1455e-06 -2.3995e-07 0
1.1383e-06 -2.4376e-07 0
1.1439e-06 -2.2119e-07 0
1.1363e-06 -2.2499e-07 0
1.1429e-06 -2.0241e-07 0
1.135e-06 -2.0619e-07 0
1.1427e-06 -1.8361e-07 0
1.1343e-06 -1.8736e-07 0
1.1431e-06 -1.648e-07 0
1.1344e-06 -1.6851e-07 0
1.1444e-06 -1.46e-07 0
1.1352e-06 -1.4966e-07 0
1.1466e-06 -1.2723e-07 0
1.1369e-06 -1.3083e-07 0
1.1497e-06 -1.085e-07 0
1.1395e-06 -1.1202e-07 0
1.1539e-06 -8.9848e-08 0
1.1431e-06 -9.3271e-08 0
1.1591e-06 -7.1288e-08 0
1.1477e-06 -7.4596e-08 0
1.1656e-06 -5.2858e-08 0
1.1534e-06 -5.6028e-08 0
1.1733e-06 -3.4597e-08 0
1.1605e-06 -3.7602e-08 0
1.1825e-06 -1.6554e-08 0
1.1688e-06 -1.9361e-08 0
1.2251e-06 -5.3269e-07 0
1.2213e-06 -5.3603e-07 0
1.2332e-06 -5.4856e-07 0
1.2171e-06 -5.1644e-07 0
1.2132e-06 -5.1988e-07 0
1.2093e-06 -4.9986e-07 0
1.2053e-06 -5.0339e-07 0
1.2018e-06 -4.8298e-07 0
1.1976e-06 -4.8658e-07 0
1.1944e-06 -4.6584e-07 0
1.1901e-06 -4.6949e-07 0
1.1873e-06 -4.4846e-07 0
1.1828e-06 -4.5216e-07 0
1.1804e-06 -4.3087e-07 0
1.1758e-06 -4.3462e-07 0
1.1738e-06 -4.131e-07 0
1.169e-06 -4.1688e-07 0
1.1675e-06 -3.9517e-07 0
1.1625e-06 -3.9898e-07 0
1.1615e-06 -3.7709e-07 0
1.1563e-06 -3.8092e-07 0
1.1559e-06 -3.5888e-07 0
1.1505e-06 -3.6273e-07 0
1.1506e-06 -3.4055e-07 0
1.145e-06 -3.4442e-07 0
1.1458e-06 -3.2213e-07 0
1.1399e-06 -3.2601e-07 0
1.1414e-06 -3.0361e-07 0
1.1353e-06 -3.075e-07 0
1.1375e-06 -2.8502e-07 0
1.1311e-06 -2.8891e-07 0
1.1341e-06 -2.6635e-07 0
1.1274e-06 -2.7025e-07 0
1.1312e-06 -2.4762e-07 0
1.1242e-06 -2.5152e-07 0
1.1289e-06 -2.2884e-07 0
1.1215e-06 -2.3274e-07 0
1.1272e-06 -2.1002e-07 0
1.1195e-06 -2.139e-07 0
1.1261e-06 -1.9116e-07 0
1.1181e-06 -1.9503e-07 0
1.1258e-06 -1.7228e-07 0
1.1174e-06 -1.7612e-07 0
1.1262e-06 -1.5339e-07 0
1.1173e-06 -1.5719e-07 0
1.1274e-06 -1.345e-07 0
1.1181e-06 -1.3826e-07 0
1.1295e-06 -1.1563e-07 0
1.1197e-06 -1.1932e-07 0
1.1325e-06 -9.6793e-08 0
1.1222e-06 -1.0041e-07 0
1.1365e-06 -7.8013e-08 0
1.1257e-06 -8.1536e-08 0
1.1417e-06 -5.9318e-08 0
1.1302e-06 -6.2726e-08 0
1.148e-06 -4.0739e-08 0
1.1358e-06 -4.4007e-08 0
1.1555e-06 -2.2316e-08 0
1.1427e-06 -2.5416e-08 0
1.1645e-06 -4.0946e-09 0
1.1508e-06 -6.9925e-09 0
1.2093e-06 -5.2336e-07 0
1.2054e-06 -5.2689e-07 0
1.2174e-06 -5.3941e-07 0
1.2013e-06 -5.0695e-07 0
1.1973e-06 -5.1056e-07 0
1.1935e-06 -4.9021e-07 0
1.1894e-06 -4.9389e-07 0
1.1858e-06 -4.7319e-07 0
1.1816e-06 -4.7693e-07 0
1.1784e-06 -4.5591e-07 0
1.1741e-06 -4.597e-07 0
1.1712e-06 -4.384e-07 0
1.1667e-06 -4.4223e-07 0
1.1643e-06 -4.207e-07 0
1.1596e-06 -4.2456e-07 0
1.1576e-06 -4.0282e-07 0
1.1527e-06 -4.0671e-07 0
1.1512e-06 -3.8479e-07 0
1.1462e-06 -3.887e-07 0
1.1452e-06 -3.6662e-07 0
1.1399e-06 -3.7055e-07 0
1.1395e-06 -3.4833e-07 0
1.134e-06 -3.5227e-07 0
1.1342e-06 -3.2993e-07 0
1.1285e-06 -3.3388e-07 0
1.1293e-06 -3.1143e-07 0
1.1233e-06 -3.154e-07 0
1.1248e-06 -2.9285e-07 0
1.1186e-06 -2.9682e-07 0
1.1208e-06 -2.7419e-07 0
1.1143e-06 -2.7817e-07 0
1.1173e-06 -2.5546e-07 0
1.1105e-06 -2.5945e-07 0
1.1143e-06 -2.3668e-07 0
1.1073e-06 -2.4066e-07 0
1.112e-06 -2.1783e-07 0
1.1046e-06 -2.2181e-07 0
1.1102e-06 -1.9894e-07 0
1.1025e-06 -2.0291e-07 0
1.1091e-06 -1.8002e-07 0
1.101e-06 -1.8397e-07 0
1.1087e-06 -1.6106e-07 0
1.1002e-06 -1.6499e-07 0
1.109e-06 -1.4208e-07 0
1.1001e-06 -1.4598e-07 0
1.1102e-06 -1.231e-07 0
1.1008e-06 -1.2695e-07 0
1.1122e-06 -1.0412e-07 0
1.1023e-06 -1.0792e-07 0
1.1151e-06 -8.5162e-08 0
1.1047e-06 -8.8885e-08 0
1.119e-06 -6.6248e-08 0
1.1081e-06 -6.988e-08 0
1.124e-06 -4.7403e-08 0
1.1125e-06 -5.0922e-08 0
1.1301e-06 -2.8657e-08 0
1.118e-06 -3.2037e-08 0
1.1375e-06 -1.0049e-08 0
1.1246e-06 -1.326e-08 0
1.1463e-06 8.3781e-09 0
1.1326e-06 5.371e-09 0
1.1933e-06 -5.1423e-07 0
1.1893e-06 -5.1795e-07 0
1.2015e-06 -5.3047e-07 0
1.1853e-06 -4.9763e-07 0
1.1812e-06 -5.0142e-07 0
1.1774e-06 -4.8072e-07 0
1.1732e-06 -4.8456e-07 0
1.1697e-06 -4.6353e-07 0
1.1654e-06 -4.6742e-07 0
1.1622e-06 -4.461e-07 0
1.1578e-06 -4.5003e-07 0
1.155e-06 -4.2846e-07 0
1.1504e-06 -4.3242e-07 0
1.1479e-06 -4.1064e-07 0
1.1432e-06 -4.1461e-07 0
1.1412e-06 -3.9265e-07 0
1.1363e-06 -3.9664e-07 0
1.1348e-06 -3.7451e-07 0
1.1296e-06 -3.7852e-07 0
1.1286e-06 -3.5625e-07 0
1.1233e-06 -3.6027e-07 0
1.1229e-06 -3.3788e-07 0
1.1173e-06 -3.4191e-07 0
1.1175e-06 -3.194e-07 0
1.1117e-06 -3.2344e-07 0
1.1125e-06 -3.0083e-07 0
1.1065e-06 -3.0488e-07 0
1.1079e-06 -2.8219e-07 0
1.1017e-06 -2.8624e-07 0
1.1039e-06 -2.6347e-07 0
1.0973e-06 -2.6753e-07 0
1.1003e-06 -2.4468e-07 0
1.0935e-06 -2.4874e-07 0
1.0973e-06 -2.2583e-07 0
1.0901e-06 -2.299e-07 0
1.0948e-06 -2.0693e-07 0
1.0873e-06 -2.1099e-07 0
1.093e-06 -1.8798e-07 0
1.0852e-06 -1.9203e-07 0
1.0918e-06 -1.6898e-07 0
1.0836e-06 -1.7302e-07 0
1.0914e-06 -1.4994e-07 0
1.0828e-06 -1.5397e-07 0
1.0916e-06 -1.3088e-07 0
1.0826e-06 -1.3488e-07 0
1.0927e-06 -1.118e-07 0
1.0832e-06 -1.1575e-07 0
1.0946e-06 -9.2703e-08 0
1.0847e-06 -9.661e-08 0
1.0974e-06 -7.3619e-08 0
1.087e-06 -7.7458e-08 0
1.1012e-06 -5.456e-08 0
1.0902e-06 -5.8313e-08 0
1.1061e-06 -3.5551e-08 0
1.0945e-06 -3.9194e-08 0
1.1121e-06 -1.6621e-08 0
1.0998e-06 -2.0128e-08 0
1.1193e-06 2.195e-09 0
1.1064e-06 -1.1448e-09 0
1.1279e-06 2.0854e-08 0
1.1142e-06 1.7718e-08 0
1.1771e-06 -5.0528e-07 0
1.173e-06 -5.0921e-07 0
1.1853e-06 -5.2175e-07 0
1.169e-06 -4.8847e-07 0
1.1649e-06 -4.9245e-07 0
1.1611e-06 -4.7137e-07 0
1.1568e-06 -4.7539e-07 0
1.1534e-06 -4.5401e-07 0
1.149e-06 -4.5806e-07 0
1.1458e-06 -4.3642e-07 0
1.1413e-06 -4.4049e-07 0
1.1385e-06 -4.1864e-07 0
1.1338e-06 -4.2272e-07 0
1.1314e-06 -4.0068e-07 0
1.1265e-06 -4.0478e-07 0
1.1246e-06 -3.8257e-07 0
1.1195e-06 -3.8668e-07 0
1.118e-06 -3.6433e-07 0
1.1128e-06 -3.6844e-07 0
1.1118e-06 -3.4598e-07 0
1.1064e-06 -3.5009e-07 0
1.106e-06 -3.2752e-07 0
1.1003e-06 -3.3164e-07 0
1.1005e-06 -3.0897e-07 0
1.0946e-06 -3.1309e-07 0
1.0954e-06 -2.9033e-07 0
1.0893e-06 -2.9446e-07 0
1.0908e-06 -2.7162e-07 0
1.0844e-06 -2.7576e-07 0
1.0867e-06 -2.5284e-07 0
1.08e-06 -2.5698e-07 0
1.0831e-06 -2.34e-07 0
1.0761e-06 -2.3814e-07 0
1.08e-06 -2.151e-07 0
1.0727e-06 -2.1924e-07 0
1.0774e-06 -1.9613e-07 0
1.0698e-06 -2.0028e-07 0
1.0755e-06 -1.7712e-07 0
1.0676e-06 -1.8126e-07 0
1.0743e-06 -1.5805e-07 0
1.066e-06 -1.6219e-07 0
1.0737e-06 -1.3894e-07 0
1.065e-06 -1.4306e-07 0
1.0739e-06 -1.1979e-07 0
1.0648e-06 -1.2389e-07 0
1.0749e-06 -1.006e-07 0
1.0654e-06 -1.0467e-07 0
1.0767e-06 -8.1393e-08 0
1.0667e-06 -8.5419e-08 0
1.0795e-06 -6.2174e-08 0
1.0689e-06 -6.6138e-08 0
1.0832e-06 -4.2961e-08 0
1.0721e-06 -4.6845e-08 0
1.0879e-06 -2.3775e-08 0
1.0762e-06 -2.7555e-08 0
1.0938e-06 -4.6428e-09 0
1.0815e-06 -8.2926e-09 0
1.1008e-06 1.4403e-08 0
1.0878e-06 1.0916e-08 0
1.1092e-06 3.3321e-08 0
1.0954e-06 3.0034e-08 0
1.1607e-06 -4.9651e-07 0
1.1565e-06 -5.0065e-07 0
1.1689e-06 -5.1322e-07 0
1.1526e-06 -4.7948e-07 0
1.1483e-06 -4.8365e-07 0
1.1446e-06 -4.6217e-07 0
1.1402e-06 -4.6636e-07 0
1.1368e-06 -4.4462e-07 0
1.1323e-06 -4.4882e-07 0
1.1291e-06 -4.2686e-07 0
1.1245e-06 -4.3107e-07 0
1.1217e-06 -4.0892e-07 0
1.1169e-06 -4.1313e-07 0
1.1145e-06 -3.9083e-07 0
1.1096e-06 -3.9504e-07 0
1.1076e-06 -3.726e-07 0
1.1025e-06 -3.7681e-07 0
1.101e-06 -3.5425e-07 0
1.0957e-06 -3.5845e-07 0
1.0947e-06 -3.3579e-07 0
1.0892e-06 -3.4e-07 0
1.0888e-06 -3.1725e-07 0
1.083e-06 -3.2145e-07 0
1.0832e-06 -2.9862e-07 0
1.0772e-06 -3.0283e-07 0
1.0781e-06 -2.7992e-07 0
1.0719e-06 -2.8413e-07 0
1.0734e-06 -2.6116e-07 0
1.0669e-06 -2.6537e-07 0
1.0692e-06 -2.4232e-07 0
1.0624e-06 -2.4654e-07 0
1.0655e-06 -2.2343e-07 0
1.0584e-06 -2.2765e-07 0
1.0623e-06 -2.0447e-07 0
1.0549e-06 -2.087e-07 0
1.0597e-06 -1.8545e-07 0
1.052e-06 -1.8968e-07 0
1.0578e-06 -1.6638e-07 0
1.0497e-06 -1.7061e-07 0
1.0565e-06 -1.4725e-07 0
1.048e-06 -1.5148e-07 0
1.0558e-06 -1.2806e-07 0
1.047e-06 -1.3228e-07 0
1.056e-06 -1.0882e-07 0
1.0467e-06 -1.1303e-07 0
1.0569e-06 -8.9529e-08 0
1.0472e-06 -9.3717e-08 0
1.0586e-06 -7.02e-08 0
1.0484e-06 -7.4352e-08 0
1.0612e-06 -5.084e-08 0
1.0506e-06 -5.4939e-08 0
1.0648e-06 -3.1463e-08 0
1.0536e-06 -3.549e-08 0
1.0694e-06 -1.2087e-08 0
1.0577e-06 -1.6019e-08 0
1.0751e-06 7.2637e-09 0
1.0628e-06 3.4547e-09 0
1.082e-06 2.656e-08 0
1.069e-06 2.2906e-08 0
1.0902e-06 4.5764e-08 0
1.0764e-06 4.2304e-08 0
1.144e-06 -4.8791e-07 0
1.1396e-06 -4.9227e-07 0
1.1522e-06 -5.0489e-07 0
1.1358e-06 -4.7063e-07 0
1.1314e-06 -4.75e-07 0
1.1278e-06 -4.531e-07 0
1.1232e-06 -4.5747e-07 0
1.1199e-06 -4.3535e-07 0
1.1152e-06 -4.3971e-07 0
1.1122e-06 -4.1741e-07 0
1.1074e-06 -4.2177e-07 0
1.1047e-06 -3.9931e-07 0
1.0998e-06 -4.0365e-07 0
1.0974e-06 -3.8107e-07 0
1.0923e-06 -3.854e-07 0
1.0904e-06 -3.6271e-07 0
1.0852e-06 -3.6703e-07 0
1.0837e-06 -3.4425e-07 0
1.0783e-06 -3.4856e-07 0
1.0773e-06 -3.257e-07 0
1.0717e-06 -3.3e-07 0
1.0713e-06 -3.0707e-07 0
1.0654e-06 -3.1136e-07 0
1.0657e-06 -2.8838e-07 0
1.0595e-06 -2.9266e-07 0
1.0604e-06 -2.6961e-07 0
1.0541e-06 -2.739e-07 0
1.0557e-06 -2.5079e-07 0
1.049e-06 -2.5507e-07 0
1.0514e-06 -2.319e-07 0
1.0444e-06 -2.362e-07 0
1.0476e-06 -2.1296e-07 0
1.0403e-06 -2.1726e-07 0
1.0444e-06 -1.9396e-07 0
1.0368e-06 -1.9826e-07 0
1.0417e-06 -1.7489e-07 0
1.0338e-06 -1.7921e-07 0
1.0397e-06 -1.5576e-07 0
1.0314e-06 -1.6009e-07 0
1.0383e-06 -1.3657e-07 0
1.0297e-06 -1.409e-07 0
1.0376e-06 -1.1731e-07 0
1.0286e-06 -1.2164e-07 0
1.0376e-06 -9.7979e-08 0
1.0282e-06 -1.0231e-07 0
1.0385e-06 -7.8587e-08 0
1.0286e-06 -8.29e-08 0
1.0401e-06 -5.9135e-08 0
1.0298e-06 -6.3422e-08 0
1.0427e-06 -3.963e-08 0
1.0319e-06 -4.3874e-08 0
1.0462e-06 -2.0081e-08 0
1.0348e-06 -2.4263e-08 0
1.0506e-06 -5.0318e-10 0
1.0388e-06 -4.6011e-09 0
1.0562e-06 1.9082e-08 0
1.0437e-06 1.5097e-08 0
1.0629e-06 3.8649e-08 0
1.0498e-06 3.481e-08 0
1.0709e-06 5.8165e-08 0
1.057e-06 5.4509e-08 0
1.1269e-06 -4.7948e-07 0
1.1225e-06 -4.8407e-07 0
1.1353e-06 -4.9675e-07 0
1.1187e-06 -4.6194e-07 0
1.1142e-06 -4.6651e-07 0
1.1106e-06 -4.4417e-07 0
1.106e-06 -4.4872e-07 0
1.1027e-06 -4.262e-07 0
1.0979e-06 -4.3072e-07 0
1.0949e-06 -4.0807e-07 0
1.09e-06 -4.1257e-07 0
1.0873e-06 -3.8979e-07 0
1.0822e-06 -3.9427e-07 0
1.0799e-06 -3.714e-07 0
1.0747e-06 -3.7585e-07 0
1.0728e-06 -3.5291e-07 0
1.0675e-06 -3.5734e-07 0
1.066e-06 -3.3434e-07 0
1.0605e-06 -3.3874e-07 0
1.0596e-06 -3.157e-07 0
1.0538e-06 -3.2008e-07 0
1.0535e-06 -2.9699e-07 0
1.0474e-06 -3.0136e-07 0
1.0477e-06 -2.7822e-07 0
1.0415e-06 -2.8258e-07 0
1.0424e-06 -2.594e-07 0
1.0359e-06 -2.6375e-07 0
1.0376e-06 -2.4052e-07 0
1.0308e-06 -2.4488e-07 0
1.0332e-06 -2.2159e-07 0
1.0261e-06 -2.2596e-07 0
1.0293e-06 -2.0261e-07 0
1.0219e-06 -2.0698e-07 0
1.026e-06 -1.8356e-07 0
1.0183e-06 -1.8795e-07 0
1.0233e-06 -1.6445e-07 0
1.0152e-06 -1.6886e-07 0
1.0212e-06 -1.4528e-07 0
1.0128e-06 -1.4969e-07 0
1.0197e-06 -1.2602e-07 0
1.011e-06 -1.3046e-07 0
1.019e-06 -1.0669e-07 0
1.0098e-06 -1.1114e-07 0
1.0189e-06 -8.7284e-08 0
1.0094e-06 -9.1732e-08 0
1.0197e-06 -6.779e-08 0
1.0097e-06 -7.2234e-08 0
1.0213e-06 -4.8214e-08 0
1.0108e-06 -5.2643e-08 0
1.0237e-06 -2.8558e-08 0
1.0128e-06 -3.2958e-08 0
1.0271e-06 -8.8301e-09 0
1.0157e-06 -1.3181e-08 0
1.0315e-06 1.096e-08 0
1.0195e-06 6.6806e-09 0
1.0369e-06 3.0795e-08 0
1.0243e-06 2.6615e-08 0
1.0435e-06 5.0652e-08 0
1.0302e-06 4.6605e-08 0
1.0512e-06 7.0503e-08 0
1.0373e-06 6.6628e-08 0
1.1096e-06 -4.712e-07 0
1.105e-06 -4.7602e-07 0
1.118e-06 -4.8878e-07 0
1.1013e-06 -4.5338e-07 0
1.0966e-06 -4.5815e-07 0
1.0931e-06 -4.3535e-07 0
1.0884e-06 -4.4008e-07 0
1.0851e-06 -4.1715e-07 0
1.0802e-06 -4.2184e-07 0
1.0772e-06 -3.9882e-07 0
1.0722e-06 -4.0346e-07 0
1.0695e-06 -3.8037e-07 0
1.0644e-06 -3.8497e-07 0
1.0621e-06 -3.6182e-07 0
1.0568e-06 -3.6638e-07 0
1.0549e-06 -3.432e-07 0
1.0494e-06 -3.4772e-07 0
1.048e-06 -3.2451e-07 0
1.0423e-06 -3.2901e-07 0
1.0415e-06 -3.0577e-07 0
1.0355e-06 -3.1024e-07 0
1.0352e-06 -2.8698e-07 0
1.0291e-06 -2.9143e-07 0
1.0294e-06 -2.6815e-07 0
1.023e-06 -2.7259e-07 0
1.024e-06 -2.4928e-07 0
1.0173e-06 -2.5371e-07 0
1.0191e-06 -2.3036e-07 0
1.0121e-06 -2.3479e-07 0
1.0146e-06 -2.1139e-07 0
1.0073e-06 -2.1583e-07 0
1.0107e-06 -1.9237e-07 0
1.0031e-06 -1.9682e-07 0
1.0073e-06 -1.7329e-07 0
9.9939e-07 -1.7776e-07 0
1.0045e-06 -1.5415e-07 0
9.9625e-07 -1.5864e-07 0
1.0023e-06 -1.3493e-07 0
9.9372e-07 -1.3944e-07 0
1.0008e-06 -1.1563e-07 0
9.9183e-07 -1.2016e-07 0
9.9995e-07 -9.6236e-08 0
9.9062e-07 -1.0079e-07 0
9.9986e-07 -7.6746e-08 0
9.9012e-07 -8.1318e-08 0
1.0005e-06 -5.7152e-08 0
9.9038e-07 -6.1733e-08 0
1.002e-06 -3.7452e-08 0
9.9143e-07 -4.2032e-08 0
1.0044e-06 -1.7643e-08 0
9.9332e-07 -2.2208e-08 0
1.0077e-06 2.2701e-09 0
9.9609e-07 -2.2614e-09 0
1.0119e-06 2.2282e-08 0
9.998e-07 1.7806e-08 0
1.0172e-06 4.238e-08 0
1.0045e-06 3.7988e-08 0
1.0236e-06 6.2546e-08 0
1.0103e-06 5.8271e-08 0
1.0312e-06 8.2756e-08 0
1.0172e-06 7.8637e-08 0
1.0919e-06 -4.6306e-07 0
1.0872e-06 -4.6812e-07 0
1.1003e-06 -4.8098e-07 0
1.0836e-06 -4.4494e-07 0
1.0787e-06 -4.4993e-07 0
1.0753e-06 -4.2664e-07 0
1.0704e-06 -4.3156e-07 0
1.0672e-06 -4.0821e-07 0
1.0622e-06 -4.1306e-07 0
1.0592e-06 -3.8966e-07 0
1.0541e-06 -3.9445e-07 0
1.0514e-06 -3.7102e-07 0
1.0461e-06 -3.7575e-07 0
1.0439e-06 -3.5232e-07 0
1.0384e-06 -3.5699e-07 0
1.0366e-06 -3.3356e-07 0
1.0309e-06 -3.3818e-07 0
1.0296e-06 -3.1476e-07 0
1.0237e-06 -3.1934e-07 0
1.0229e-06 -2.9593e-07 0
1.0168e-06 -3.0047e-07 0
1.0166e-06 -2.7706e-07 0
1.0103e-06 -2.8158e-07 0
1.0107e-06 -2.5817e-07 0
1.0041e-06 -2.6268e-07 0
1.0052e-06 -2.3925e-07 0
9.9834e-07 -2.4375e-07 0
1.0002e-06 -2.203e-07 0
9.9301e-07 -2.2479e-07 0
9.956e-07 -2.013e-07 0
9.8817e-07 -2.0581e-07 0
9.9158e-07 -1.8226e-07 0
9.8384e-07 -1.8678e-07 0
9.8811e-07 -1.6316e-07 0
9.8004e-07 -1.677e-07 0
9.8524e-07 -1.4399e-07 0
9.7683e-07 -1.4856e-07 0
9.8299e-07 -1.2474e-07 0
9.7422e-07 -1.2934e-07 0
9.814e-07 -1.0539e-07 0
9.7226e-07 -1.1003e-07 0
9.805e-07 -8.5943e-08 0
9.7098e-07 -9.0613e-08 0
9.8034e-07 -6.6378e-08 0
9.7042e-07 -7.1079e-08 0
9.8095e-07 -4.6689e-08 0
9.706e-07 -5.1413e-08 0
9.8238e-07 -2.6865e-08 0
9.7158e-07 -3.1605e-08 0
9.8466e-07 -6.903e-09 0
9.7339e-07 -1.1644e-08 0
9.8785e-07 1.32e-08 0
9.7608e-07 8.4745e-09 0
9.92e-07 3.3442e-08 0
9.7969e-07 2.8754e-08 0
9.9716e-07 5.3815e-08 0
9.8428e-07 4.9192e-08 0
1.0034e-06 7.4308e-08 0
9.899e-07 6.9782e-08 0
1.0108e-06 9.49e-08 0
9.9663e-07 9.0511e-08 0
1.0739e-06 -4.5506e-07 0
1.069e-06 -4.6035e-07 0
1.0824e-06 -4.7333e-07 0
1.0655e-06 -4.3662e-07 0
1.0605e-06 -4.4181e-07 0
1.0571e-06 -4.1803e-07 0
1.052e-06 -4.2314e-07 0
1.0489e-06 -3.9935e-07 0
1.0437e-06 -4.0436e-07 0
1.0408e-06 -3.8058e-07 0
1.0355e-06 -3.8551e-07 0
1.0329e-06 -3.6175e-07 0
1.0275e-06 -3.6661e-07 0
1.0253e-06 -3.4288e-07 0
1.0196e-06 -3.4767e-07 0
1.0179e-06 -3.2399e-07 0
1.012e-06 -3.2871e-07 0
1.0108e-06 -3.0508e-07 0
1.0047e-06 -3.0975e-07 0
1.004e-06 -2.8616e-07 0
9.977e-07 -2.9078e-07 0
9.9755e-07 -2.6722e-07 0
9.9104e-07 -2.7181e-07 0
9.9153e-07 -2.4828e-07 0
9.8476e-07 -2.5285e-07 0
9.8593e-07 -2.2932e-07 0
9.7889e-07 -2.3388e-07 0
9.8079e-07 -2.1034e-07 0
9.7347e-07 -2.149e-07 0
9.7615e-07 -1.9133e-07 0
9.6853e-07 -1.959e-07 0
9.7204e-07 -1.7227e-07 0
9.641e-07 -1.7686e-07 0
9.6849e-07 -1.5316e-07 0
9.6023e-07 -1.5778e-07 0
9.6554e-07 -1.3397e-07 0
9.5693e-07 -1.3863e-07 0
9.6322e-07 -1.147e-07 0
9.5425e-07 -1.194e-07 0
9.6156e-07 -9.5323e-08 0
9.5222e-07 -1.0007e-07 0
9.606e-07 -7.5828e-08 0
9.5088e-07 -8.0616e-08 0
9.6037e-07 -5.6197e-08 0
9.5024e-07 -6.103e-08 0
9.6092e-07 -3.6416e-08 0
9.5036e-07 -4.1291e-08 0
9.6227e-07 -1.6473e-08 0
9.5127e-07 -2.138e-08 0
9.6447e-07 3.642e-09 0
9.5301e-07 -1.2858e-09 0
9.6757e-07 2.3937e-08 0
9.5561e-07 1.9005e-08 0
9.7161e-07 4.4416e-08 0
9.5913e-07 3.95e-08 0
9.7664e-07 6.5075e-08 0
9.636e-07 6.0202e-08 0
9.8273e-07 8.591e-08 0
9.6909e-07 8.1112e-08 0
9.8994e-07 1.069e-07 0
9.7565e-07 1.0222e-07 0
1.0554e-06 -4.4717e-07 0
1.0504e-06 -4.527e-07 0
1.064e-06 -4.6581e-07 0
1.0469e-06 -4.2839e-07 0
1.0418e-06 -4.338e-07 0
1.0385e-06 -4.0951e-07 0
1.0333e-06 -4.1481e-07 0
1.0302e-06 -3.9056e-07 0
1.0248e-06 -3.9574e-07 0
1.022e-06 -3.7157e-07 0
1.0165e-06 -3.7664e-07 0
1.014e-06 -3.5254e-07 0
1.0083e-06 -3.5752e-07 0
1.0062e-06 -3.3351e-07 0
1.0004e-06 -3.384e-07 0
9.9869e-07 -3.1448e-07 0
9.9268e-07 -3.193e-07 0
9.9146e-07 -2.9546e-07 0
9.8524e-07 -3.0021e-07 0
9.8456e-07 -2.7645e-07 0
9.7812e-07 -2.8115e-07 0
9.7803e-07 -2.5746e-07 0
9.7134e-07 -2.6211e-07 0
9.7189e-07 -2.3847e-07 0
9.6494e-07 -2.431e-07 0
9.6619e-07 -2.1948e-07 0
9.5896e-07 -2.241e-07 0
9.6096e-07 -2.0049e-07 0
9.5343e-07 -2.051e-07 0
9.5622e-07 -1.8147e-07 0
9.4839e-07 -1.861e-07 0
9.5202e-07 -1.6241e-07 0
9.4388e-07 -1.6707e-07 0
9.4839e-07 -1.433e-07 0
9.3991e-07 -1.4799e-07 0
9.4536e-07 -1.2411e-07 0
9.3654e-07 -1.2885e-07 0
9.4297e-07 -1.0483e-07 0
9.3379e-07 -1.0962e-07 0
9.4124e-07 -8.5437e-08 0
9.3169e-07 -9.0284e-08 0
9.4021e-07 -6.5905e-08 0
9.3027e-07 -7.0814e-08 0
9.3992e-07 -4.6218e-08 0
9.2957e-07 -5.1188e-08 0
9.404e-07 -2.6354e-08 0
9.2963e-07 -3.1384e-08 0
9.4168e-07 -6.2969e-09 0
9.3047e-07 -1.138e-08 0
9.4381e-07 1.397e-08 0
9.3214e-07 8.8444e-09 0
9.4682e-07 3.4458e-08 0
9.3466e-07 2.9305e-08 0
9.5076e-07 5.5178e-08 0
9.3808e-07 5.0017e-08 0
9.5567e-07 7.6133e-08 0
9.4245e-07 7.099e-08 0
9.6161e-07 9.7323e-08 0
9.4781e-07 9.223e-08 0
9.6865e-07 1.1874e-07 0
9.5421e-07 1.1374e-07 0
1.0366e-06 -4.3938e-07 0
1.0313e-06 -4.4516e-07 0
1.0452e-06 -4.5842e-07 0
1.028e-06 -4.2025e-07 0
1.0227e-06 -4.2588e-07 0
1.0194e-06 -4.0106e-07 0
1.014e-06 -4.0654e-07 0
1.011e-06 -3.8184e-07 0
1.0055e-06 -3.8718e-07 0
1.0027e-06 -3.6261e-07 0
9.9706e-07 -3.6782e-07 0
9.9459e-07 -3.4339e-07 0
9.8878e-07 -3.4849e-07 0
9.8669e-07 -3.2419e-07 0
9.807e-07 -3.2918e-07 0
9.7905e-07 -3.0503e-07 0
9.7286e-07 -3.0993e-07 0
9.7169e-07 -2.859e-07 0
9.6529e-07 -2.9073e-07 0
9.6467e-07 -2.6682e-07 0
9.5804e-07 -2.7158e-07 0
9.5802e-07 -2.4777e-07 0
9.5113e-07 -2.5248e-07 0
9.5177e-07 -2.2875e-07 0
9.4461e-07 -2.3343e-07 0
9.4596e-07 -2.0975e-07 0
9.3852e-07 -2.1441e-07 0
9.4062e-07 -1.9075e-07 0
9.3288e-07 -1.9541e-07 0
9.3579e-07 -1.7174e-07 0
9.2774e-07 -1.7642e-07 0
9.315e-07 -1.5269e-07 0
9.2313e-07 -1.5741e-07 0
9.2778e-07 -1.336e-07 0
9.1908e-07 -1.3835e-07 0
9.2467e-07 -1.1442e-07 0
9.1562e-07 -1.1924e-07 0
9.2221e-07 -9.5149e-08 0
9.1279e-07 -1.0003e-07 0
9.2041e-07 -7.5747e-08 0
9.1062e-07 -8.0698e-08 0
9.1932e-07 -5.6192e-08 0
9.0914e-07 -6.1222e-08 0
9.1896e-07 -3.6459e-08 0
9.0838e-07 -4.1569e-08 0
9.1937e-07 -1.6522e-08 0
9.0838e-07 -2.1712e-08 0
9.2059e-07 3.6423e-09 0
9.0915e-07 -1.6238e-09 0
9.2264e-07 2.4055e-08 0
9.1075e-07 1.8722e-08 0
9.2557e-07 4.4736e-08 0
9.132e-07 3.935e-08 0
9.2941e-07 6.57e-08 0
9.1654e-07 6.0279e-08 0
9.3421e-07 8.6958e-08 0
9.208e-07 8.1526e-08 0
9.4002e-07 1.0852e-07 0
9.2604e-07 1.031e-07 0
9.4688e-07 1.3037e-07 0
9.3229e-07 1.2502e-07 0
1.0173e-06 -4.3168e-07 0
1.0119e-06 -4.377e-07 0
1.026e-06 -4.5113e-07 0
1.0086e-06 -4.1219e-07 0
1.0031e-06 -4.1802e-07 0
9.9995e-07 -3.9268e-07 0
9.9437e-07 -3.9833e-07 0
9.9139e-07 -3.7317e-07 0
9.857e-07 -3.7867e-07 0
9.8296e-07 -3.537e-07 0
9.7714e-07 -3.5905e-07 0
9.7472e-07 -3.3428e-07 0
9.6873e-07 -3.3949e-07 0
9.6668e-07 -3.1491e-07 0
9.6051e-07 -3.2e-07 0
9.5891e-07 -2.9562e-07 0
9.5254e-07 -3.006e-07 0
9.5142e-07 -2.764e-07 0
9.4483e-07 -2.8128e-07 0
9.4427e-07 -2.5724e-07 0
9.3744e-07 -2.6206e-07 0
9.3749e-07 -2.3815e-07 0
9.3041e-07 -2.4291e-07 0
9.3112e-07 -2.1911e-07 0
9.2376e-07 -2.2383e-07 0
9.252e-07 -2.001e-07 0
9.1755e-07 -2.0481e-07 0
9.1975e-07 -1.8112e-07 0
9.118e-07 -1.8583e-07 0
9.1482e-07 -1.6213e-07 0
9.0655e-07 -1.6686e-07 0
9.1043e-07 -1.4312e-07 0
9.0184e-07 -1.4788e-07 0
9.0663e-07 -1.2405e-07 0
8.977e-07 -1.2887e-07 0
9.0345e-07 -1.0491e-07 0
8.9416e-07 -1.098e-07 0
9.0091e-07 -8.566e-08 0
8.9125e-07 -9.0625e-08 0
8.9904e-07 -6.6268e-08 0
8.8901e-07 -7.1323e-08 0
8.9789e-07 -4.6705e-08 0
8.8746e-07 -5.1857e-08 0
8.9747e-07 -2.694e-08 0
8.8664e-07 -3.2194e-08 0
8.9782e-07 -6.9414e-09 0
8.8658e-07 -1.2298e-08 0
8.9897e-07 1.332e-08 0
8.873e-07 7.8633e-09 0
9.0096e-07 3.3874e-08 0
8.8883e-07 2.8323e-08 0
9.0381e-07 5.4743e-08 0
8.9121e-07 4.911e-08 0
9.0756e-07 7.5952e-08 0
8.9447e-07 7.0254e-08 0
9.1225e-07 9.7518e-08 0
8.9864e-07 9.1778e-08 0
9.1793e-07 1.1946e-07 0
9.0376e-07 1.137e-07 0
9.2463e-07 1.4177e-07 0
9.0987e-07 1.3604e-07 0
9.9757e-07 -4.2405e-07 0
9.9197e-07 -4.303e-07 0
1.0064e-06 -4.4393e-07 0
9.8875e-07 -4.0418e-07 0
9.8309e-07 -4.1022e-07 0
9.7998e-07 -3.8433e-07 0
9.7422e-07 -3.9017e-07 0
9.7129e-07 -3.6454e-07 0
9.6542e-07 -3.7019e-07 0
9.6273e-07 -3.4482e-07 0
9.5672e-07 -3.5029e-07 0
9.5434e-07 -3.2519e-07 0
9.4817e-07 -3.3051e-07 0
9.4617e-07 -3.0567e-07 0
9.3981e-07 -3.1084e-07 0
9.3825e-07 -2.8625e-07 0
9.3169e-07 -2.913e-07 0
9.3063e-07 -2.6693e-07 0
9.2384e-07 -2.7188e-07 0
9.2334e-07 -2.4772e-07 0
9.1631e-07 -2.5258e-07 0
9.1643e-07 -2.2859e-07 0
9.0913e-07 -2.3339e-07 0
9.0993e-07 -2.0954e-07 0
9.0236e-07 -2.143e-07 0
9.0389e-07 -1.9055e-07 0
8.9602e-07 -1.9529e-07 0
8.9833e-07 -1.716e-07 0
8.9015e-07 -1.7634e-07 0
8.9329e-07 -1.5265e-07 0
8.8479e-07 -1.5742e-07 0
8.8881e-07 -1.3369e-07 0
8.7998e-07 -1.385e-07 0
8.8493e-07 -1.1468e-07 0
8.7574e-07 -1.1956e-07 0
8.8166e-07 -9.5588e-08 0
8.7212e-07 -1.0054e-07 0
8.7904e-07 -7.6379e-08 0
8.6914e-07 -8.1428e-08 0
8.7711e-07 -5.7016e-08 0
8.6683e-07 -6.2173e-08 0
8.759e-07 -3.7463e-08 0
8.6522e-07 -4.2737e-08 0
8.7542e-07 -1.7682e-08 0
8.6434e-07 -2.3081e-08 0
8.7571e-07 2.3643e-09 0
8.6422e-07 -3.1631e-09 0
8.7681e-07 2.2712e-08 0
8.6488e-07 1.7057e-08 0
8.7873e-07 4.3396e-08 0
8.6635e-07 3.7617e-08 0
8.8151e-07 6.4449e-08 0
8.6867e-07 5.8557e-08 0
8.8518e-07 8.5902e-08 0
8.7185e-07 7.991e-08 0
8.8977e-07 1.0778e-07 0
8.7594e-07 1.0171e-07 0
8.9532e-07 1.301e-07 0
8.8095e-07 1.2398e-07 0
9.0187e-07 1.5289e-07 0
8.8693e-07 1.4675e-07 0
9.7737e-07 -4.1647e-07 0
9.7158e-07 -4.2296e-07 0
9.863e-07 -4.3679e-07 0
9.6842e-07 -3.962e-07 0
9.6257e-07 -4.0244e-07 0
9.5952e-07 -3.7601e-07 0
9.5358e-07 -3.8202e-07 0
9.5069e-07 -3.5592e-07 0
9.4463e-07 -3.6172e-07 0
9.4199e-07 -3.3596e-07 0
9.3579e-07 -3.4155e-07 0
9.3345e-07 -3.1613e-07 0
9.2708e-07 -3.2154e-07 0
9.2513e-07 -2.9644e-07 0
9.1857e-07 -3.0169e-07 0
9.1706e-07 -2.769e-07 0
9.1029e-07 -2.8201e-07 0
9.0929e-07 -2.575e-07 0
9.0229e-07 -2.625e-07 0
9.0186e-07 -2.3824e-07 0
8.9461e-07 -2.4314e-07 0
8.9481e-07 -2.191e-07 0
8.8729e-07 -2.2393e-07 0
8.8818e-07 -2.0006e-07 0
8.8037e-07 -2.0484e-07 0
8.8201e-07 -1.811e-07 0
8.739e-07 -1.8586e-07 0
8.7633e-07 -1.6219e-07 0
8.6791e-07 -1.6696e-07 0
8.7119e-07 -1.4331e-07 0
8.6244e-07 -1.4811e-07 0
8.6661e-07 -1.2442e-07 0
8.5753e-07 -1.2927e-07 0
8.6263e-07 -1.0549e-07 0
8.532e-07 -1.1041e-07 0
8.5929e-07 -8.6465e-08 0
8.4949e-07 -9.1484e-08 0
8.566e-07 -6.732e-08 0
8.4643e-07 -7.245e-08 0
8.546e-07 -4.8008e-08 0
8.4405e-07 -5.3265e-08 0
8.5333e-07 -2.8484e-08 0
8.4238e-07 -3.3881e-08 0
8.528e-07 -8.7063e-09 0
8.4144e-07 -1.4253e-08 0
8.5304e-07 1.1371e-08 0
8.4127e-07 5.6682e-09 0
8.5407e-07 3.179e-08 0
8.4188e-07 2.5929e-08 0
8.5594e-07 5.2594e-08 0
8.433e-07 4.6577e-08 0
8.5865e-07 7.3822e-08 0
8.4556e-07 6.7657e-08 0
8.6224e-07 9.5514e-08 0
8.4868e-07 8.9213e-08 0
8.6674e-07 1.177e-07 0
8.5268e-07 1.1128e-07 0
8.7218e-07 1.4042e-07 0
8.5759e-07 1.3391e-07 0
8.7858e-07 1.6369e-07 0
8.6345e-07 1.5712e-07 0
9.5667e-07 -4.0892e-07 0
9.5069e-07 -4.1564e-07 0
9.6572e-07 -4.297e-07 0
9.4759e-07 -3.8824e-07 0
9.4156e-07 -3.9469e-07 0
9.3854e-07 -3.677e-07 0
9.3241e-07 -3.7388e-07 0
9.2956e-07 -3.4731e-07 0
9.2332e-07 -3.5324e-07 0
9.2071e-07 -3.2709e-07 0
9.1431e-07 -3.328e-07 0
9.1201e-07 -3.0706e-07 0
9.0545e-07 -3.1257e-07 0
9.0353e-07 -2.8722e-07 0
8.9677e-07 -2.9254e-07 0
8.953e-07 -2.6757e-07 0
8.8833e-07 -2.7273e-07 0
8.8738e-07 -2.481e-07 0
8.8016e-07 -2.5313e-07 0
8.7979e-07 -2.288e-07 0
8.7232e-07 -2.3373e-07 0
8.726e-07 -2.0966e-07 0
8.6485e-07 -2.1451e-07 0
8.6583e-07 -1.9065e-07 0
8.5779e-07 -1.9545e-07 0
8.5953e-07 -1.7174e-07 0
8.5119e-07 -1.7652e-07 0
8.5374e-07 -1.529e-07 0
8.4507e-07 -1.5769e-07 0
8.4849e-07 -1.3411e-07 0
8.3948e-07 -1.3893e-07 0
8.4381e-07 -1.1532e-07 0
8.3446e-07 -1.202e-07 0
8.3974e-07 -9.6479e-08 0
8.3004e-07 -1.0145e-07 0
8.3631e-07 -7.7557e-08 0
8.2624e-07 -8.2633e-08 0
8.3355e-07 -5.85e-08 0
8.2311e-07 -6.3706e-08 0
8.3149e-07 -3.9262e-08 0
8.2066e-07 -4.4616e-08 0
8.3016e-07 -1.9791e-08 0
8.1893e-07 -2.5309e-08 0
8.2957e-07 -3.7039e-11 0
8.1794e-07 -5.7321e-09 0
8.2977e-07 2.0051e-08 0
8.1772e-07 1.417e-08 0
8.3076e-07 4.0525e-08 0
8.1829e-07 3.4453e-08 0
8.3257e-07 6.1434e-08 0
8.1966e-07 5.5171e-08 0
8.3522e-07 8.2827e-08 0
8.2187e-07 7.6378e-08 0
8.3874e-07 1.0475e-07 0
8.2492e-07 9.8125e-08 0
8.4316e-07 1.2725e-07 0
8.2885e-07 1.2046e-07 0
8.4849e-07 1.5036e-07 0
8.3368e-07 1.4344e-07 0
8.5476e-07 1.7412e-07 0
8.3942e-07 1.6709e-07 0
9.3546e-07 -4.0137e-07 0
9.293e-07 -4.0833e-07 0
9.4465e-07 -4.2263e-07 0
9.2624e-07 -3.8028e-07 0
9.2001e-07 -3.8692e-07 0
9.1704e-07 -3.5937e-07 0
9.1072e-07 -3.6572e-07 0
9.079e-07 -3.3868e-07 0
9.0146e-07 -3.4475e-07 0
8.9887e-07 -3.1821e-07 0
8.9228e-07 -3.2403e-07 0
8.9001e-07 -2.9799e-07 0
8.8324e-07 -3.0357e-07 0
8.8136e-07 -2.7799e-07 0
8.7439e-07 -2.8337e-07 0
8.7296e-07 -2.5824e-07 0
8.6577e-07 -2.6344e-07 0
8.6487e-07 -2.3871e-07 0
8.5744e-07 -2.4377e-07 0
8.5713e-07 -2.194e-07 0
8.4943e-07 -2.2434e-07 0
8.4978e-07 -2.0027e-07 0
8.418e-07 -2.0512e-07 0
8.4287e-07 -1.8131e-07 0
8.3459e-07 -1.8611e-07 0
8.3644e-07 -1.6247e-07 0
8.2785e-07 -1.6726e-07 0
8.3052e-07 -1.4374e-07 0
8.216e-07 -1.4853e-07 0
8.2516e-07 -1.2506e-07 0
8.159e-07 -1.2989e-07 0
8.2038e-07 -1.0638e-07 0
8.1077e-07 -1.1129e-07 0
8.1622e-07 -8.7674e-08 0
8.0624e-07 -9.2675e-08 0
8.1271e-07 -6.8875e-08 0
8.0237e-07 -7.4002e-08 0
8.0989e-07 -4.9935e-08 0
7.9916e-07 -5.5211e-08 0
8.0776e-07 -3.0797e-08 0
7.9665e-07 -3.6244e-08 0
8.0637e-07 -1.1404e-08 0
7.9486e-07 -1.7042e-08 0
8.0574e-07 8.301e-09 0
7.9382e-07 2.4571e-09 0
8.0589e-07 2.8378e-08 0
7.9356e-07 2.2316e-08 0
8.0683e-07 4.8886e-08 0
7.9408e-07 4.2598e-08 0
8.086e-07 6.9884e-08 0
7.9541e-07 6.3366e-08 0
8.112e-07 9.1428e-08 0
7.9758e-07 8.4682e-08 0
8.1467e-07 1.1357e-07 0
8.0058e-07 1.0661e-07 0
8.19e-07 1.3638e-07 0
8.0445e-07 1.292e-07 0
8.2424e-07 1.5989e-07 0
8.0919e-07 1.5253e-07 0
8.3039e-07 1.8415e-07 0
8.1483e-07 1.7663e-07 0
9.1373e-07 -3.9382e-07 0
9.0737e-07 -4.0099e-07 0
9.2306e-07 -4.1556e-07 0
9.0435e-07 -3.7229e-07 0
8.9793e-07 -3.7912e-07 0
8.9498e-07 -3.5102e-07 0
8.8847e-07 -3.5751e-07 0
8.8567e-07 -3.3002e-07 0
8.7903e-07 -3.362e-07 0
8.7646e-07 -3.093e-07 0
8.6967e-07 -3.152e-07 0
8.6742e-07 -2.8888e-07 0
8.6045e-07 -2.9452e-07 0
8.5859e-07 -2.6875e-07 0
8.5141e-07 -2.7417e-07 0
8.5002e-07 -2.489e-07 0
8.4261e-07 -2.5413e-07 0
8.4175e-07 -2.2933e-07 0
8.3409e-07 -2.344e-07 0
8.3385e-07 -2.1002e-07 0
8.2591e-07 -2.1495e-07 0
8.2634e-07 -1.9093e-07 0
8.1812e-07 -1.9577e-07 0
8.1929e-07 -1.7204e-07 0
8.1076e-07 -1.7683e-07 0
8.1272e-07 -1.5331e-07 0
8.0386e-07 -1.5808e-07 0
8.0667e-07 -1.3469e-07 0
7.9749e-07 -1.3948e-07 0
8.0119e-07 -1.1615e-07 0
7.9166e-07 -1.2098e-07 0
7.9631e-07 -9.7633e-08 0
7.8642e-07 -1.0255e-07 0
7.9206e-07 -7.908e-08 0
7.818e-07 -8.4105e-08 0
7.8848e-07 -6.0436e-08 0
7.7784e-07 -6.5605e-08 0
7.8558e-07 -4.1642e-08 0
7.7456e-07 -4.6982e-08 0
7.834e-07 -2.2634e-08 0
7.7199e-07 -2.817e-08 0
7.8196e-07 -3.3484e-09 0
7.7015e-07 -9.1031e-09 0
7.8128e-07 1.6281e-08 0
7.6907e-07 1.0289e-08 0
7.8139e-07 3.6322e-08 0
7.6876e-07 3.0077e-08 0
7.823e-07 5.6842e-08 0
7.6925e-07 5.0332e-08 0
7.8403e-07 7.7908e-08 0
7.7055e-07 7.1126e-08 0
7.8659e-07 9.9586e-08 0
7.7268e-07 9.2532e-08 0
7.9e-07 1.2194e-07 0
7.7564e-07 1.1462e-07 0
7.9427e-07 1.4504e-07 0
7.7946e-07 1.3746e-07 0
7.9942e-07 1.6894e-07 0
7.8413e-07 1.6112e-07 0
8.0546e-07 1.9371e-07 0
7.8968e-07 1.8567e-07 0
8.9145e-07 -3.8622e-07 0
8.849e-07 -3.9361e-07 0
9.0094e-07 -4.0847e-07 0
8.819e-07 -3.6425e-07 0
8.7529e-07 -3.7126e-07 0
8.7236e-07 -3.4261e-07 0
8.6564e-07 -3.4925e-07 0
8.6286e-07 -3.2129e-07 0
8.5602e-07 -3.2759e-07 0
8.5346e-07 -3.0033e-07 0
8.4647e-07 -3.0631e-07 0
8.4423e-07 -2.7972e-07 0
8.3704e-07 -2.8542e-07 0
8.3521e-07 -2.5946e-07 0
8.2781e-07 -2.6491e-07 0
8.2645e-07 -2.3954e-07 0
8.1881e-07 -2.4478e-07 0
8.18e-07 -2.1995e-07 0
8.1011e-07 -2.2501e-07 0
8.0992e-07 -2.0065e-07 0
8.0175e-07 -2.0557e-07 0
8.0226e-07 -1.8163e-07 0
7.9379e-07 -1.8645e-07 0
7.9505e-07 -1.6284e-07 0
7.8626e-07 -1.676e-07 0
7.8834e-07 -1.4424e-07 0
7.7922e-07 -1.4898e-07 0
7.8216e-07 -1.2578e-07 0
7.7271e-07 -1.3054e-07 0
7.7657e-07 -1.0741e-07 0
7.6676e-07 -1.1223e-07 0
7.7159e-07 -8.9074e-08 0
7.6141e-07 -9.3984e-08 0
7.6725e-07 -7.0711e-08 0
7.567e-07 -7.575e-08 0
7.6358e-07 -5.2256e-08 0
7.5265e-07 -5.7457e-08 0
7.6062e-07 -3.3641e-08 0
7.493e-07 -3.9036e-08 0
7.5839e-07 -1.4795e-08 0
7.4667e-07 -2.0414e-08 0
7.569e-07 4.3522e-09 0
7.4479e-07 -1.5159e-09 0
7.5619e-07 2.3876e-08 0
7.4366e-07 1.7736e-08 0
7.5626e-07 4.3853e-08 0
7.4333e-07 3.7422e-08 0
7.5714e-07 6.4358e-08 0
7.4379e-07 5.7621e-08 0
7.5884e-07 8.5468e-08 0
7.4506e-07 7.8416e-08 0
7.6136e-07 1.0726e-07 0
7.4716e-07 9.9888e-08 0
7.6473e-07 1.2981e-07 0
7.5009e-07 1.2212e-07 0
7.6895e-07 1.532e-07 0
7.5387e-07 1.4519e-07 0
7.7403e-07 1.7748e-07 0
7.5849e-07 1.6918e-07 0
7.7997e-07 2.0275e-07 0
7.6395e-07 1.9417e-07 0
8.6862e-07 -3.7856e-07 0
8.6187e-07 -3.8616e-07 0
8.7828e-07 -4.0133e-07 0
8.5889e-07 -3.5614e-07 0
8.5208e-07 -3.6332e-07 0
8.4915e-07 -3.3412e-07 0
8.4224e-07 -3.4089e-07 0
8.3945e-07 -3.1249e-07 0
8.3241e-07 -3.1889e-07 0
8.2985e-07 -2.9129e-07 0
8.2265e-07 -2.9734e-07 0
8.2041e-07 -2.705e-07 0
8.1302e-07 -2.7623e-07 0
8.1119e-07 -2.5012e-07 0
8.0357e-07 -2.5558e-07 0
8.0223e-07 -2.3014e-07 0
7.9437e-07 -2.3537e-07 0
7.936e-07 -2.1055e-07 0
7.8547e-07 -2.1558e-07 0
7.8534e-07 -1.913e-07 0
7.7693e-07 -1.9619e-07 0
7.7751e-07 -1.7237e-07 0
7.6878e-07 -1.7714e-07 0
7.7014e-07 -1.537e-07 0
7.6109e-07 -1.5842e-07 0
7.6329e-07 -1.3526e-07 0
7.539e-07 -1.3996e-07 0
7.5699e-07 -1.1699e-07 0
7.4725e-07 -1.2171e-07 0
7.5128e-07 -9.8833e-08 0
7.4118e-07 -1.0362e-07 0
7.4619e-07 -8.0718e-08 0
7.3573e-07 -8.5612e-08 0
7.4177e-07 -6.2581e-08 0
7.3092e-07 -6.7621e-08 0
7.3803e-07 -4.435e-08 0
7.268e-07 -4.9574e-08 0
7.35e-07 -2.595e-08 0
7.2338e-07 -3.1394e-08 0
7.3272e-07 -7.3032e-09 0
7.2069e-07 -1.2999e-08 0
7.3119e-07 1.1671e-08 0
7.1877e-07 5.6942e-09 0
7.3044e-07 3.1056e-08 0
7.1761e-07 2.4771e-08 0
7.3049e-07 5.0936e-08 0
7.1725e-07 4.432e-08 0
7.3135e-07 7.1397e-08 0
7.1769e-07 6.4432e-08 0
7.3302e-07 9.2526e-08 0
7.1895e-07 8.5197e-08 0
7.3553e-07 1.1441e-07 0
7.2103e-07 1.0671e-07 0
7.3886e-07 1.3714e-07 0
7.2394e-07 1.2906e-07 0
7.4304e-07 1.6079e-07 0
7.2768e-07 1.5234e-07 0
7.4806e-07 1.8546e-07 0
7.3225e-07 1.7665e-07 0
7.5391e-07 2.1122e-07 0
7.3766e-07 2.0206e-07 0
8.4521e-07 -3.708e-07 0
8.3827e-07 -3.7861e-07 0
8.5505e-07 -3.9411e-07 0
8.3528e-07 -3.4793e-07 0
8.2827e-07 -3.5527e-07 0
8.2533e-07 -3.2552e-07 0
8.1822e-07 -3.3241e-07 0
8.1542e-07 -3.0359e-07 0
8.0817e-07 -3.1007e-07 0
8.0561e-07 -2.8214e-07 0
7.9819e-07 -2.8824e-07 0
7.9596e-07 -2.6119e-07 0
7.8834e-07 -2.6694e-07 0
7.8652e-07 -2.4071e-07 0
7.7868e-07 -2.4617e-07 0
7.7736e-07 -2.207e-07 0
7.6926e-07 -2.259e-07 0
7.6853e-07 -2.0112e-07 0
7.6016e-07 -2.0611e-07 0
7.6009e-07 -1.8195e-07 0
7.5142e-07 -1.8678e-07 0
7.5208e-07 -1.6313e-07 0
7.4309e-07 -1.6785e-07 0
7.4455e-07 -1.4463e-07 0
7.3524e-07 -1.4929e-07 0
7.3756e-07 -1.2639e-07 0
7.2789e-07 -1.3103e-07 0
7.3112e-07 -1.0835e-07 0
7.2111e-07 -1.1301e-07 0
7.253e-07 -9.0431e-08 0
7.1492e-07 -9.5174e-08 0
7.2012e-07 -7.2575e-08 0
7.0936e-07 -7.744e-08 0
7.1561e-07 -5.4704e-08 0
7.0446e-07 -5.9734e-08 0
7.118e-07 -3.6737e-08 0
7.0026e-07 -4.1973e-08 0
7.0872e-07 -1.8592e-08 0
6.9678e-07 -2.4074e-08 0
7.0639e-07 -1.8226e-10 0
6.9405e-07 -5.9467e-09 0
7.0483e-07 1.8581e-08 0
6.9208e-07 1.2501e-08 0
7.0405e-07 3.779e-08 0
6.909e-07 3.1363e-08 0
7.0408e-07 5.7539e-08 0
6.9052e-07 5.0738e-08 0
7.0492e-07 7.7923e-08 0
6.9095e-07 7.0726e-08 0
7.0659e-07 9.904e-08 0
6.922e-07 9.1429e-08 0
7.0908e-07 1.2099e-07 0
6.9427e-07 1.1295e-07 0
7.1239e-07 1.4387e-07 0
6.9717e-07 1.3539e-07 0
7.1654e-07 1.6777e-07 0
7.009e-07 1.5886e-07 0
7.2151e-07 1.928e-07 0
7.0544e-07 1.8346e-07 0
7.2729e-07 2.1905e-07 0
7.108e-07 2.093e-07 0
8.2121e-07 -3.6293e-07 0
8.1407e-07 -3.7093e-07 0
8.3125e-07 -3.8677e-07 0
8.1107e-07 -3.3959e-07 0
8.0386e-07 -3.4708e-07 0
8.009e-07 -3.1679e-07 0
7.9359e-07 -3.2379e-07 0
7.9076e-07 -2.9455e-07 0
7.8331e-07 -3.011e-07 0
7.8072e-07 -2.7288e-07 0
7.7309e-07 -2.7901e-07 0
7.7084e-07 -2.5177e-07 0
7.63e-07 -2.5753e-07 0
7.6118e-07 -2.3121e-07 0
7.5311e-07 -2.3664e-07 0
7.5181e-07 -2.1118e-07 0
7.4347e-07 -2.1634e-07 0
7.4277e-07 -1.9165e-07 0
7.3415e-07 -1.9658e-07 0
7.3414e-07 -1.7258e-07 0
7.2521e-07 -1.7734e-07 0
7.2596e-07 -1.5393e-07 0
7.1671e-07 -1.5857e-07 0
7.1827e-07 -1.3563e-07 0
7.0868e-07 -1.402e-07 0
7.1113e-07 -1.1762e-07 0
7.0119e-07 -1.2218e-07 0
7.0457e-07 -9.9842e-08 0
6.9426e-07 -1.0444e-07 0
6.9863e-07 -8.2214e-08 0
6.8795e-07 -8.6896e-08 0
6.9336e-07 -6.466e-08 0
6.8229e-07 -6.948e-08 0
6.8877e-07 -4.7097e-08 0
6.7731e-07 -5.2102e-08 0
6.8489e-07 -2.9437e-08 0
6.7304e-07 -3.4673e-08 0
6.8176e-07 -1.1589e-08 0
6.6951e-07 -1.7099e-08 0
6.7939e-07 6.542e-09 0
6.6674e-07 7.1696e-10 0
6.778e-07 2.5053e-08 0
6.6474e-07 1.8876e-08 0
6.7701e-07 4.4047e-08 0
6.6354e-07 3.7481e-08 0
6.7703e-07 6.3626e-08 0
6.6315e-07 5.6641e-08 0
6.7786e-07 8.3897e-08 0
6.6358e-07 7.6467e-08 0
6.7953e-07 1.0497e-07 0
6.6483e-07 9.7069e-08 0
6.8201e-07 1.2695e-07 0
6.669e-07 1.1856e-07 0
6.8532e-07 1.4995e-07 0
6.6981e-07 1.4107e-07 0
6.8945e-07 1.7408e-07 0
6.7353e-07 1.647e-07 0
6.9439e-07 1.9946e-07 0
6.7805e-07 1.8958e-07 0
7.0012e-07 2.2619e-07 0
6.8338e-07 2.1582e-07 0
7.966e-07 -3.549e-07 0
7.8927e-07 -3.6308e-07 0
8.0686e-07 -3.793e-07 0
7.8623e-07 -3.3109e-07 0
7.7883e-07 -3.3871e-07 0
7.7583e-07 -3.079e-07 0
7.6831e-07 -3.1499e-07 0
7.6545e-07 -2.8536e-07 0
7.5778e-07 -2.9195e-07 0
7.5516e-07 -2.6347e-07 0
7.4732e-07 -2.6961e-07 0
7.4504e-07 -2.4222e-07 0
7.3698e-07 -2.4796e-07 0
7.3515e-07 -2.216e-07 0
7.2684e-07 -2.2698e-07 0
7.2556e-07 -2.0158e-07 0
7.1698e-07 -2.0667e-07 0
7.1631e-07 -1.8214e-07 0
7.0744e-07 -1.8698e-07 0
7.0749e-07 -1.6321e-07 0
6.983e-07 -1.6787e-07 0
6.9913e-07 -1.4475e-07 0
6.896e-07 -1.4928e-07 0
6.9128e-07 -1.2669e-07 0
6.8141e-07 -1.3115e-07 0
6.84e-07 -1.0896e-07 0
6.7377e-07 -1.1342e-07 0
6.7731e-07 -9.1488e-08 0
6.6672e-07 -9.5991e-08 0
6.7127e-07 -7.4193e-08 0
6.6029e-07 -7.8797e-08 0
6.659e-07 -5.6986e-08 0
6.5454e-07 -6.1745e-08 0
6.6124e-07 -3.9776e-08 0
6.4948e-07 -4.4743e-08 0
6.5731e-07 -2.2469e-08 0
6.4515e-07 -2.7692e-08 0
6.5413e-07 -4.9638e-09 0
6.4157e-07 -1.0491e-08 0
6.5173e-07 1.2843e-08 0
6.3876e-07 6.9664e-09 0
6.5012e-07 3.1057e-08 0
6.3675e-07 2.479e-08 0
6.4932e-07 4.9791e-08 0
6.3554e-07 4.3093e-08 0
6.4934e-07 6.9159e-08 0
6.3514e-07 6.1994e-08 0
6.5018e-07 8.9277e-08 0
6.3558e-07 8.1613e-08 0
6.5185e-07 1.1026e-07 0
6.3684e-07 1.0208e-07 0
6.5434e-07 1.3224e-07 0
6.3893e-07 1.2351e-07 0
6.5766e-07 1.5534e-07 0
6.4185e-07 1.4604e-07 0
6.6178e-07 1.7968e-07 0
6.4557e-07 1.698e-07 0
6.6671e-07 2.0538e-07 0
6.501e-07 1.9492e-07 0
6.724e-07 2.3257e-07 0
6.5541e-07 2.2154e-07 0
7.7137e-07 -3.4668e-07 0
7.6384e-07 -3.5504e-07 0
7.8186e-07 -3.7166e-07 0
7.6076e-07 -3.2239e-07 0
7.5315e-07 -3.3013e-07 0
7.501e-07 -2.9882e-07 0
7.4238e-07 -3.0598e-07 0
7.3946e-07 -2.7598e-07 0
7.3159e-07 -2.826e-07 0
7.2892e-07 -2.5388e-07 0
7.2085e-07 -2.6001e-07 0
7.1855e-07 -2.3251e-07 0
7.1026e-07 -2.3821e-07 0
7.0841e-07 -2.1186e-07 0
6.9987e-07 -2.1717e-07 0
6.9859e-07 -1.9189e-07 0
6.8976e-07 -1.9688e-07 0
6.8914e-07 -1.7256e-07 0
6.8e-07 -1.7729e-07 0
6.8011e-07 -1.5381e-07 0
6.7066e-07 -1.5835e-07 0
6.7158e-07 -1.3559e-07 0
6.6178e-07 -1.3999e-07 0
6.6358e-07 -1.1781e-07 0
6.5342e-07 -1.2215e-07 0
6.5615e-07 -1.0041e-07 0
6.4563e-07 -1.0474e-07 0
6.4936e-07 -8.3295e-08 0
6.3846e-07 -8.7688e-08 0
6.4321e-07 -6.638e-08 0
6.3193e-07 -7.0888e-08 0
6.3776e-07 -4.9569e-08 0
6.2609e-07 -5.4251e-08 0
6.3303e-07 -3.2762e-08 0
6.2097e-07 -3.7674e-08 0
6.2905e-07 -1.5856e-08 0
6.1658e-07 -2.1052e-08 0
6.2584e-07 1.2576e-09 0
6.1296e-07 -4.2742e-09 0
6.2341e-07 1.8691e-08 0
6.1013e-07 1.2774e-08 0
6.218e-07 3.6562e-08 0
6.081e-07 3.0213e-08 0
6.2099e-07 5.499e-08 0
6.0689e-07 4.8165e-08 0
6.2102e-07 7.41e-08 0
6.0651e-07 6.6758e-08 0
6.2188e-07 9.4021e-08 0
6.0696e-07 8.6125e-08 0
6.2357e-07 1.1488e-07 0
6.0825e-07 1.064e-07 0
6.2608e-07 1.3682e-07 0
6.1036e-07 1.2773e-07 0
6.2942e-07 1.5998e-07 0
6.1331e-07 1.5025e-07 0
6.3355e-07 1.8448e-07 0
6.1706e-07 1.741e-07 0
6.3848e-07 2.1048e-07 0
6.216e-07 1.9944e-07 0
6.4416e-07 2.3812e-07 0
6.2691e-07 2.2642e-07 0
7.455e-07 -3.3825e-07 0
7.3777e-07 -3.4676e-07 0
7.5624e-07 -3.6381e-07 0
7.3462e-07 -3.1347e-07 0
7.2682e-07 -3.2132e-07 0
7.2369e-07 -2.895e-07 0
7.1577e-07 -2.9672e-07 0
7.1278e-07 -2.6638e-07 0
7.0469e-07 -2.73e-07 0
7.0197e-07 -2.4409e-07 0
6.9368e-07 -2.5018e-07 0
6.9133e-07 -2.2263e-07 0
6.8281e-07 -2.2825e-07 0
6.8095e-07 -2.0197e-07 0
6.7216e-07 -2.0718e-07 0
6.7089e-07 -1.8208e-07 0
6.6181e-07 -1.8695e-07 0
6.6123e-07 -1.6291e-07 0
6.5183e-07 -1.675e-07 0
6.5201e-07 -1.4439e-07 0
6.4228e-07 -1.4878e-07 0
6.433e-07 -1.2645e-07 0
6.3322e-07 -1.307e-07 0
6.3515e-07 -1.0901e-07 0
6.247e-07 -1.132e-07 0
6.276e-07 -9.1979e-08 0
6.1678e-07 -9.6172e-08 0
6.2069e-07 -7.5273e-08 0
6.0949e-07 -7.9535e-08 0
6.1446e-07 -5.879e-08 0
6.0288e-07 -6.3184e-08 0
6.0894e-07 -4.2426e-08 0
5.9696e-07 -4.7015e-08 0
6.0416e-07 -2.6074e-08 0
5.9178e-07 -3.0917e-08 0
6.0013e-07 -9.6212e-09 0
5.8735e-07 -1.4777e-08 0
5.9689e-07 7.0493e-09 0
5.8371e-07 1.5255e-09 0
5.9446e-07 2.4059e-08 0
5.8086e-07 1.8113e-08 0
5.9284e-07 4.1535e-08 0
5.7883e-07 3.5114e-08 0
5.9205e-07 5.9606e-08 0
5.7763e-07 5.2662e-08 0
5.9209e-07 7.841e-08 0
5.7727e-07 7.0897e-08 0
5.9297e-07 9.8086e-08 0
5.7775e-07 8.9961e-08 0
5.9469e-07 1.1878e-07 0
5.7907e-07 1.1e-07 0
5.9724e-07 1.4063e-07 0
5.8123e-07 1.3118e-07 0
6.0061e-07 1.6381e-07 0
5.8421e-07 1.5364e-07 0
6.0478e-07 1.8845e-07 0
5.88e-07 1.7755e-07 0
6.0972e-07 2.1472e-07 0
5.9258e-07 2.0307e-07 0
6.154e-07 2.4277e-07 0
5.979e-07 2.3037e-07 0
7.1896e-07 -3.2955e-07 0
7.1104e-07 -3.3821e-07 0
7.2997e-07 -3.5572e-07 0
7.0781e-07 -3.0428e-07 0
6.9981e-07 -3.1221e-07 0
6.9659e-07 -2.7993e-07 0
6.8846e-07 -2.8717e-07 0
6.8539e-07 -2.5652e-07 0
6.7708e-07 -2.6313e-07 0
6.7429e-07 -2.3406e-07 0
6.6577e-07 -2.4009e-07 0
6.6338e-07 -2.1254e-07 0
6.5462e-07 -2.1806e-07 0
6.5274e-07 -1.9191e-07 0
6.437e-07 -1.9699e-07 0
6.4245e-07 -1.7215e-07 0
6.331e-07 -1.7686e-07 0
6.3257e-07 -1.5318e-07 0
6.2289e-07 -1.576e-07 0
6.2317e-07 -1.3493e-07 0
6.1315e-07 -1.3915e-07 0
6.1429e-07 -1.1733e-07 0
6.0392e-07 -1.2141e-07 0
6.06e-07 -1.0027e-07 0
5.9526e-07 -1.0429e-07 0
5.9833e-07 -8.3678e-08 0
5.8721e-07 -8.7708e-08 0
5.9133e-07 -6.7436e-08 0
5.7983e-07 -7.1547e-08 0
5.8502e-07 -5.1439e-08 0
5.7313e-07 -5.5701e-08 0
5.7944e-07 -3.5578e-08 0
5.6716e-07 -4.0055e-08 0
5.7462e-07 -1.9735e-08 0
5.6193e-07 -2.4492e-08 0
5.7057e-07 -3.7895e-09 0
5.5748e-07 -8.889e-09 0
5.6731e-07 1.2384e-08 0
5.5382e-07 6.8816e-09 0
5.6488e-07 2.8916e-08 0
5.5097e-07 2.2952e-08 0
5.6327e-07 4.5942e-08 0
5.4895e-07 3.9461e-08 0
5.6249e-07 6.3604e-08 0
5.4777e-07 5.655e-08 0
5.6257e-07 8.2049e-08 0
5.4744e-07 7.4371e-08 0
5.6349e-07 1.0143e-07 0
5.4796e-07 9.3078e-08 0
5.6525e-07 1.219e-07 0
5.4933e-07 1.1283e-07 0
5.6785e-07 1.4363e-07 0
5.5154e-07 1.338e-07 0
5.7127e-07 1.6677e-07 0
5.5458e-07 1.5616e-07 0
5.7548e-07 1.9151e-07 0
5.5842e-07 1.8008e-07 0
5.8046e-07 2.1801e-07 0
5.6305e-07 2.0574e-07 0
5.8616e-07 2.4645e-07 0
5.6842e-07 2.3332e-07 0
6.9175e-07 -3.2056e-07 0
6.8363e-07 -3.2935e-07 0
7.0305e-07 -3.4734e-07 0
6.8029e-07 -2.9478e-07 0
6.7209e-07 -3.0278e-07 0
6.6876e-07 -2.7004e-07 0
6.6042e-07 -2.7729e-07 0
6.5725e-07 -2.4637e-07 0
6.4873e-07 -2.5293e-07 0
6.4586e-07 -2.2377e-07 0
6.3711e-07 -2.297e-07 0
6.3467e-07 -2.0221e-07 0
6.2565e-07 -2.076e-07 0
6.2377e-07 -1.8167e-07 0
6.1446e-07 -1.8658e-07 0
6.1324e-07 -1.6207e-07 0
6.0362e-07 -1.666e-07 0
6.0315e-07 -1.4336e-07 0
5.9319e-07 -1.4758e-07 0
5.9357e-07 -1.2544e-07 0
5.8326e-07 -1.2945e-07 0
5.8455e-07 -1.0823e-07 0
5.7387e-07 -1.1211e-07 0
5.7613e-07 -9.1629e-08 0
5.6508e-07 -9.5448e-08 0
5.6836e-07 -7.5521e-08 0
5.5694e-07 -7.9364e-08 0
5.6128e-07 -5.98e-08 0
5.4947e-07 -6.374e-08 0
5.5492e-07 -4.4348e-08 0
5.4272e-07 -4.8458e-08 0
5.493e-07 -2.9046e-08 0
5.3671e-07 -3.3395e-08 0
5.4444e-07 -1.3768e-08 0
5.3146e-07 -1.8424e-08 0
5.4038e-07 1.6131e-09 0
5.2699e-07 -3.4157e-09 0
5.3713e-07 1.7233e-08 0
5.2333e-07 1.1766e-08 0
5.347e-07 3.323e-08 0
5.205e-07 2.7263e-08 0
5.3311e-07 4.9751e-08 0
5.185e-07 4.322e-08 0
5.3237e-07 6.6946e-08 0
5.1735e-07 5.9793e-08 0
5.3248e-07 8.4975e-08 0
5.1706e-07 7.7141e-08 0
5.3345e-07 1.04e-07 0
5.1763e-07 9.5433e-08 0
5.3527e-07 1.242e-07 0
5.1906e-07 1.1484e-07 0
5.3793e-07 1.4574e-07 0
5.2133e-07 1.3555e-07 0
5.4141e-07 1.6881e-07 0
5.2444e-07 1.5775e-07 0
5.4568e-07 1.9359e-07 0
5.2836e-07 1.8162e-07 0
5.5072e-07 2.2028e-07 0
5.3306e-07 2.0738e-07 0
5.5647e-07 2.4907e-07 0
5.3849e-07 2.3521e-07 0
6.6383e-07 -3.1121e-07 0
6.5551e-07 -3.2012e-07 0
6.7544e-07 -3.3863e-07 0
6.5205e-07 -2.8492e-07 0
6.4364e-07 -2.9296e-07 0
6.4019e-07 -2.5981e-07 0
6.3163e-07 -2.6703e-07 0
6.2836e-07 -2.3589e-07 0
6.196e-07 -2.4237e-07 0
6.1665e-07 -2.1317e-07 0
6.0765e-07 -2.1897e-07 0
6.0517e-07 -1.9163e-07 0
5.959e-07 -1.9684e-07 0
5.9401e-07 -1.7121e-07 0
5.8443e-07 -1.7592e-07 0
5.8325e-07 -1.5184e-07 0
5.7334e-07 -1.5615e-07 0
5.7297e-07 -1.3345e-07 0
5.6271e-07 -1.3744e-07 0
5.6322e-07 -1.1593e-07 0
5.526e-07 -1.197e-07 0
5.5407e-07 -9.9174e-08 0
5.4308e-07 -1.0282e-07 0
5.4555e-07 -8.308e-08 0
5.3419e-07 -8.6677e-08 0
5.377e-07 -6.7524e-08 0
5.2596e-07 -7.1158e-08 0
5.3056e-07 -5.2386e-08 0
5.1845e-07 -5.6135e-08 0
5.2416e-07 -3.7538e-08 0
5.1166e-07 -4.1478e-08 0
5.1852e-07 -2.2854e-08 0
5.0563e-07 -2.7058e-08 0
5.1366e-07 -8.2007e-09 0
5.0038e-07 -1.2739e-08 0
5.096e-07 6.5591e-09 0
4.9592e-07 1.6162e-09 0
5.0636e-07 2.1567e-08 0
4.9228e-07 1.6151e-08 0
5.0395e-07 3.6971e-08 0
4.8947e-07 3.1014e-08 0
5.024e-07 5.2927e-08 0
4.8751e-07 4.6361e-08 0
5.017e-07 6.9596e-08 0
4.864e-07 6.2356e-08 0
5.0186e-07 8.7148e-08 0
4.8616e-07 7.9169e-08 0
5.0289e-07 1.0576e-07 0
4.8679e-07 9.6983e-08 0
5.0478e-07 1.2562e-07 0
4.8829e-07 1.1598e-07 0
5.0752e-07 1.4692e-07 0
4.9064e-07 1.3637e-07 0
5.1108e-07 1.6986e-07 0
4.9384e-07 1.5835e-07 0
5.1543e-07 1.9464e-07 0
4.9785e-07 1.8213e-07 0
5.2054e-07 2.2148e-07 0
5.0263e-07 2.0792e-07 0
5.2636e-07 2.5057e-07 0
5.0815e-07 2.3595e-07 0
6.3518e-07 -3.0147e-07 0
6.2665e-07 -3.1048e-07 0
6.4712e-07 -3.2955e-07 0
6.2305e-07 -2.7466e-07 0
6.1442e-07 -2.8272e-07 0
6.1083e-07 -2.4917e-07 0
6.0205e-07 -2.5634e-07 0
5.9866e-07 -2.2503e-07 0
5.8966e-07 -2.3139e-07 0
5.8663e-07 -2.0224e-07 0
5.7738e-07 -2.0787e-07 0
5.7486e-07 -1.8076e-07 0
5.6531e-07 -1.8575e-07 0
5.6344e-07 -1.6052e-07 0
5.5357e-07 -1.6499e-07 0
5.5247e-07 -1.4145e-07 0
5.4225e-07 -1.4549e-07 0
5.42e-07 -1.2344e-07 0
5.3143e-07 -1.2716e-07 0
5.3212e-07 -1.0639e-07 0
5.2117e-07 -1.0989e-07 0
5.2285e-07 -9.0163e-08 0
5.1154e-07 -9.3546e-08 0
5.1426e-07 -7.4647e-08 0
5.0258e-07 -7.7998e-08 0
5.0637e-07 -5.9709e-08 0
4.9432e-07 -6.3114e-08 0
4.992e-07 -4.5217e-08 0
4.8678e-07 -4.8757e-08 0
4.9279e-07 -3.1036e-08 0
4.7999e-07 -3.479e-08 0
4.8715e-07 -1.703e-08 0
4.7397e-07 -2.1073e-08 0
4.823e-07 -3.0592e-09 0
4.6874e-07 -7.4655e-09 0
4.7827e-07 1.102e-08 0
4.6431e-07 6.1778e-09 0
4.7506e-07 2.5357e-08 0
4.6071e-07 2.0006e-08 0
4.7269e-07 4.0108e-08 0
4.5794e-07 3.4176e-08 0
4.7117e-07 5.5437e-08 0
4.5602e-07 4.8851e-08 0
4.7053e-07 7.1516e-08 0
4.5497e-07 6.4204e-08 0
4.7075e-07 8.8527e-08 0
4.5479e-07 8.0418e-08 0
4.7186e-07 1.0666e-07 0
4.5549e-07 9.7685e-08 0
4.7383e-07 1.2612e-07 0
4.5707e-07 1.1621e-07 0
4.7665e-07 1.4712e-07 0
4.5952e-07 1.3621e-07 0
4.803e-07 1.6987e-07 0
4.6281e-07 1.579e-07 0
4.8476e-07 1.9459e-07 0
4.6693e-07 1.8152e-07 0
4.8997e-07 2.2151e-07 0
4.7182e-07 2.0729e-07 0
4.9587e-07 2.5087e-07 0
4.7744e-07 2.3547e-07 0
6.0575e-07 -2.9127e-07 0
5.9702e-07 -3.0036e-07 0
6.1805e-07 -3.2004e-07 0
5.9325e-07 -2.6393e-07 0
5.844e-07 -2.7199e-07 0
5.8066e-07 -2.3809e-07 0
5.7164e-07 -2.4517e-07 0
5.6813e-07 -2.1376e-07 0
5.5888e-07 -2.1995e-07 0
5.5577e-07 -1.9094e-07 0
5.4624e-07 -1.9634e-07 0
5.4371e-07 -1.6957e-07 0
5.3386e-07 -1.7431e-07 0
5.3204e-07 -1.4959e-07 0
5.2185e-07 -1.5377e-07 0
5.2087e-07 -1.3089e-07 0
5.1032e-07 -1.3463e-07 0
5.1025e-07 -1.1335e-07 0
4.9934e-07 -1.1677e-07 0
5.0025e-07 -9.6836e-08 0
4.8898e-07 -1.0004e-07 0
4.9092e-07 -8.1219e-08 0
4.7928e-07 -8.4316e-08 0
4.8229e-07 -6.6355e-08 0
4.7028e-07 -6.9438e-08 0
4.7438e-07 -5.2104e-08 0
4.6202e-07 -5.5261e-08 0
4.6723e-07 -3.8323e-08 0
4.545e-07 -4.1638e-08 0
4.6084e-07 -2.487e-08 0
4.4775e-07 -2.8424e-08 0
4.5523e-07 -1.1603e-08 0
4.4178e-07 -1.5472e-08 0
4.5043e-07 1.6264e-09 0
4.366e-07 -2.634e-09 0
4.4643e-07 1.4966e-08 0
4.3223e-07 1.0239e-08 0
4.4327e-07 2.8573e-08 0
4.2868e-07 2.3303e-08 0
4.4095e-07 4.261e-08 0
4.2597e-07 3.672e-08 0
4.3949e-07 5.7248e-08 0
4.2411e-07 5.066e-08 0
4.3891e-07 7.2671e-08 0
4.2312e-07 6.5305e-08 0
4.3921e-07 8.9074e-08 0
4.2301e-07 8.085e-08 0
4.4039e-07 1.0666e-07 0
4.2378e-07 9.7501e-08 0
4.4245e-07 1.2565e-07 0
4.2545e-07 1.1548e-07 0
4.4537e-07 1.4627e-07 0
4.28e-07 1.3501e-07 0
4.4914e-07 1.6876e-07 0
4.3141e-07 1.5635e-07 0
4.5371e-07 1.9335e-07 0
4.3565e-07 1.7973e-07 0
4.5904e-07 2.2031e-07 0
4.4067e-07 2.0543e-07 0
4.6506e-07 2.4987e-07 0
4.4642e-07 2.3369e-07 0
5.7551e-07 -2.8056e-07 0
5.6656e-07 -2.8971e-07 0
5.882e-07 -3.1005e-07 0
5.626e-07 -2.5268e-07 0
5.5353e-07 -2.6069e-07 0
5.4962e-07 -2.2649e-07 0
5.4035e-07 -2.3343e-07 0
5.3671e-07 -2.0201e-07 0
5.2719e-07 -2.0798e-07 0
5.2402e-07 -1.7922e-07 0
5.1419e-07 -1.8435e-07 0
5.1167e-07 -1.5805e-07 0
5.015e-07 -1.6247e-07 0
4.9978e-07 -1.3841e-07 0
4.8925e-07 -1.4225e-07 0
4.8844e-07 -1.2017e-07 0
4.7754e-07 -1.2357e-07 0
4.7771e-07 -1.0318e-07 0
4.6644e-07 -1.0626e-07 0
4.6765e-07 -8.7301e-08 0
4.5601e-07 -9.0181e-08 0
4.5829e-07 -7.237e-08 0
4.463e-07 -7.5159e-08 0
4.4967e-07 -5.8235e-08 0
4.3733e-07 -6.1031e-08 0
4.418e-07 -4.4741e-08 0
4.2911e-07 -4.7636e-08 0
4.3469e-07 -3.1738e-08 0
4.2167e-07 -3.4816e-08 0
4.2837e-07 -1.9075e-08 0
4.15e-07 -2.2417e-08 0
4.2283e-07 -6.6047e-09 0
4.0911e-07 -1.0288e-08 0
4.1809e-07 5.8253e-09 0
4.0402e-07 1.7228e-09 0
4.1416e-07 1.8369e-08 0
3.9973e-07 1.377e-08 0
4.1106e-07 3.1187e-08 0
3.9625e-07 2.6013e-08 0
4.0881e-07 4.4448e-08 0
3.9361e-07 3.8617e-08 0
4.0742e-07 5.8331e-08 0
3.9182e-07 5.176e-08 0
4.069e-07 7.303e-08 0
3.909e-07 6.563e-08 0
4.0727e-07 8.8751e-08 0
3.9087e-07 8.0434e-08 0
4.0854e-07 1.0572e-07 0
3.9172e-07 9.6391e-08 0
4.107e-07 1.2416e-07 0
3.9349e-07 1.1374e-07 0
4.1374e-07 1.4432e-07 0
3.9614e-07 1.3273e-07 0
4.1763e-07 1.6647e-07 0
3.9968e-07 1.5362e-07 0
4.2234e-07 1.9087e-07 0
4.0406e-07 1.767e-07 0
4.2781e-07 2.1779e-07 0
4.0924e-07 2.0224e-07 0
4.3398e-07 2.4751e-07 0
4.1515e-07 2.3052e-07 0
5.4441e-07 -2.6925e-07 0
5.3522e-07 -2.7844e-07 0
5.5752e-07 -2.995e-07 0
5.3107e-07 -2.4083e-07 0
5.2174e-07 -2.4875e-07 0
5.1766e-07 -2.1432e-07 0
5.0812e-07 -2.2106e-07 0
5.0436e-07 -1.8974e-07 0
4.9453e-07 -1.9543e-07 0
4.9133e-07 -1.6705e-07 0
4.8117e-07 -1.7184e-07 0
4.7872e-07 -1.4618e-07 0
4.6819e-07 -1.5022e-07 0
4.6663e-07 -1.2698e-07 0
4.5572e-07 -1.3043e-07 0
4.5516e-07 -1.093e-07 0
4.4388e-07 -1.123e-07 0
4.4437e-07 -9.2967e-08 0
4.3272e-07 -9.567e-08 0
4.3431e-07 -7.7811e-08 0
4.223e-07 -8.0336e-08 0
4.2499e-07 -6.3655e-08 0
4.1264e-07 -6.6114e-08 0
4.1644e-07 -5.0327e-08 0
4.0376e-07 -5.2822e-08 0
4.0866e-07 -3.7663e-08 0
3.9566e-07 -4.0284e-08 0
4.0166e-07 -2.5502e-08 0
3.8834e-07 -2.8334e-08 0
3.9544e-07 -1.3689e-08 0
3.818e-07 -1.6812e-08 0
3.9e-07 -2.0714e-09 0
3.7605e-07 -5.562e-09 0
3.8537e-07 9.5054e-09 0
3.7108e-07 5.5703e-09 0
3.8153e-07 2.1198e-08 0
3.669e-07 1.674e-08 0
3.7852e-07 3.3171e-08 0
3.6352e-07 2.8108e-08 0
3.7634e-07 4.5596e-08 0
3.6097e-07 3.9843e-08 0
3.7502e-07 5.866e-08 0
3.5926e-07 5.2127e-08 0
3.7457e-07 7.2564e-08 0
3.5841e-07 6.5155e-08 0
3.7502e-07 8.7527e-08 0
3.5845e-07 7.9142e-08 0
3.7638e-07 1.0378e-07 0
3.5939e-07 9.4322e-08 0
3.7864e-07 1.2159e-07 0
3.6124e-07 1.1095e-07 0
3.818e-07 1.4122e-07 0
3.6401e-07 1.293e-07 0
3.8583e-07 1.6295e-07 0
3.6768e-07 1.4967e-07 0
3.907e-07 1.8707e-07 0
3.7222e-07 1.7235e-07 0
3.9634e-07 2.1388e-07 0
3.7758e-07 1.9765e-07 0
4.0268e-07 2.4368e-07 0
3.8367e-07 2.2588e-07 0
5.1238e-07 -2.5727e-07 0
5.0294e-07 -2.6647e-07 0
5.2595e-07 -2.8833e-07 0
4.9856e-07 -2.2829e-07 0
4.8897e-07 -2.3608e-07 0
4.847e-07 -2.0149e-07 0
4.7486e-07 -2.0798e-07 0
4.7101e-07 -1.7688e-07 0
4.6084e-07 -1.8223e-07 0
4.5766e-07 -1.5441e-07 0
4.4712e-07 -1.5878e-07 0
4.4481e-07 -1.3393e-07 0
4.3387e-07 -1.3753e-07 0
4.3257e-07 -1.153e-07 0
4.2124e-07 -1.183e-07 0
4.2104e-07 -9.8301e-08 0
4.0933e-07 -1.0087e-07 0
4.1026e-07 -8.2741e-08 0
3.9819e-07 -8.5033e-08 0
4.0026e-07 -6.8414e-08 0
3.8785e-07 -7.056e-08 0
3.9106e-07 -5.5124e-08 0
3.7833e-07 -5.7239e-08 0
3.8265e-07 -4.2685e-08 0
3.6962e-07 -4.4869e-08 0
3.7503e-07 -3.092e-08 0
3.6171e-07 -3.3263e-08 0
3.6819e-07 -1.9663e-08 0
3.5459e-07 -2.2246e-08 0
3.6213e-07 -8.7546e-09 0
3.4825e-07 -1.1656e-08 0
3.5685e-07 1.9595e-09 0
3.4268e-07 -1.3339e-09 0
3.5235e-07 1.2634e-08 0
3.3787e-07 8.8728e-09 0
3.4863e-07 2.3426e-08 0
3.3384e-07 1.9119e-08 0
3.4572e-07 3.4501e-08 0
3.3059e-07 2.9564e-08 0
3.4363e-07 4.6033e-08 0
3.2813e-07 4.0378e-08 0
3.4238e-07 5.8213e-08 0
3.265e-07 5.1742e-08 0
3.4201e-07 7.1249e-08 0
3.2573e-07 6.3859e-08 0
3.4253e-07 8.5373e-08 0
3.2583e-07 7.6952e-08 0
3.4397e-07 1.0084e-07 0
3.2685e-07 9.1269e-08 0
3.4634e-07 1.1791e-07 0
3.2879e-07 1.0708e-07 0
3.4962e-07 1.369e-07 0
3.3167e-07 1.247e-07 0
3.5381e-07 1.5812e-07 0
3.3549e-07 1.4443e-07 0
3.5886e-07 1.8188e-07 0
3.402e-07 1.6661e-07 0
3.6469e-07 2.085e-07 0
3.4575e-07 1.9159e-07 0
3.7123e-07 2.3831e-07 0
3.5206e-07 2.1969e-07 0
4.7933e-07 -2.4451e-07 0
4.6962e-07 -2.5368e-07 0
4.9341e-07 -2.7644e-07 0
4.65e-07 -2.1497e-07 0
4.5511e-07 -2.2256e-07 0
4.5067e-07 -1.8793e-07 0
4.4048e-07 -1.9408e-07 0
4.3657e-07 -1.6339e-07 0
4.2601e-07 -1.6829e-07 0
4.2292e-07 -1.4125e-07 0
4.1195e-07 -1.4513e-07 0
4.0988e-07 -1.2132e-07 0
3.9849e-07 -1.244e-07 0
3.9757e-07 -1.034e-07 0
3.8577e-07 -1.0589e-07 0
3.8607e-07 -8.7222e-08 0
3.7388e-07 -8.9314e-08 0
3.7539e-07 -7.2558e-08 0
3.6286e-07 -7.4412e-08 0
3.6556e-07 -5.9171e-08 0
3.5272e-07 -6.0922e-08 0
3.5656e-07 -4.6841e-08 0
3.4344e-07 -4.8605e-08 0
3.4838e-07 -3.5369e-08 0
3.35e-07 -3.7242e-08 0
3.41e-07 -2.4569e-08 0
3.2738e-07 -2.6637e-08 0
3.3439e-07 -1.4272e-08 0
3.2054e-07 -1.6612e-08 0
3.2855e-07 -4.3178e-09 0
3.1446e-07 -7.0006e-09 0
3.2347e-07 5.4483e-09 0
3.0912e-07 2.351e-09 0
3.1914e-07 1.5178e-08 0
3.0453e-07 1.1594e-08 0
3.1557e-07 2.5027e-08 0
3.0067e-07 2.0878e-08 0
3.1278e-07 3.5156e-08 0
2.9756e-07 3.0359e-08 0
3.1078e-07 4.5741e-08 0
2.9522e-07 4.0204e-08 0
3.0961e-07 5.6975e-08 0
2.9368e-07 5.0595e-08 0
3.093e-07 6.9071e-08 0
2.9296e-07 6.1734e-08 0
3.0989e-07 8.227e-08 0
2.9312e-07 7.3853e-08 0
3.114e-07 9.6842e-08 0
2.9419e-07 8.7212e-08 0
3.1386e-07 1.1309e-07 0
2.9621e-07 1.0211e-07 0
3.1727e-07 1.3133e-07 0
2.992e-07 1.1886e-07 0
3.2162e-07 1.5191e-07 0
3.0316e-07 1.3784e-07 0
3.2686e-07 1.752e-07 0
3.0805e-07 1.5941e-07 0
3.3292e-07 2.0155e-07 0
3.1382e-07 1.8395e-07 0
3.3969e-07 2.3129e-07 0
3.2038e-07 2.1184e-07 0
4.4517e-07 -2.3084e-07 0
4.3515e-07 -2.3995e-07 0
4.598e-07 -2.6371e-07 0
4.3028e-07 -2.0075e-07 0
4.2004e-07 -2.0805e-07 0
4.1544e-07 -1.7355e-07 0
4.0485e-07 -1.7924e-07 0
4.0095e-07 -1.4921e-07 0
3.8993e-07 -1.5355e-07 0
3.8705e-07 -1.2756e-07 0
3.7556e-07 -1.3084e-07 0
3.739e-07 -1.0836e-07 0
3.6197e-07 -1.1085e-07 0
3.6162e-07 -9.132e-08 0
3.4928e-07 -9.3246e-08 0
3.5025e-07 -7.6126e-08 0
3.3754e-07 -7.7703e-08 0
3.398e-07 -6.2495e-08 0
3.2678e-07 -6.3891e-08 0
3.3025e-07 -5.0161e-08 0
3.1697e-07 -5.1511e-08 0
3.2157e-07 -3.8885e-08 0
3.0806e-07 -4.03e-08 0
3.1372e-07 -2.8455e-08 0
3e-07 -3.0025e-08 0
3.0667e-07 -1.868e-08 0
2.9276e-07 -2.0484e-08 0
3.0038e-07 -9.391e-09 0
2.8629e-07 -1.1497e-08 0
2.9482e-07 -4.2947e-10 0
2.8054e-07 -2.9039e-09 0
2.8999e-07 8.354e-09 0
2.7551e-07 5.4463e-09 0
2.8587e-07 1.7106e-08 0
2.7117e-07 1.3697e-08 0
2.8248e-07 2.5976e-08 0
2.6753e-07 2.1991e-08 0
2.7982e-07 3.5121e-08 0
2.6458e-07 3.0476e-08 0
2.7792e-07 4.4712e-08 0
2.6236e-07 3.9314e-08 0
2.7682e-07 5.494e-08 0
2.609e-07 4.8681e-08 0
2.7657e-07 6.6023e-08 0
2.6024e-07 5.8779e-08 0
2.772e-07 7.821e-08 0
2.6043e-07 6.9844e-08 0
2.7876e-07 9.1787e-08 0
2.6154e-07 8.2147e-08 0
2.813e-07 1.0708e-07 0
2.636e-07 9.6003e-08 0
2.8483e-07 1.2444e-07 0
2.6667e-07 1.1177e-07 0
2.8934e-07 1.4427e-07 0
2.7076e-07 1.2985e-07 0
2.9479e-07 1.6697e-07 0
2.7584e-07 1.5067e-07 0
3.0109e-07 1.9294e-07 0
2.8185e-07 1.7466e-07 0
3.0814e-07 2.2254e-07 0
2.8869e-07 2.0223e-07 0
4.0975e-07 -2.1612e-07 0
3.9938e-07 -2.251e-07 0
4.2501e-07 -2.5002e-07 0
3.9424e-07 -1.8548e-07 0
3.836e-07 -1.9239e-07 0
3.7888e-07 -1.5824e-07 0
3.6781e-07 -1.6335e-07 0
3.6403e-07 -1.3428e-07 0
3.5245e-07 -1.3794e-07 0
3.4996e-07 -1.1335e-07 0
3.3787e-07 -1.1592e-07 0
3.3683e-07 -9.5103e-08 0
3.2426e-07 -9.6902e-08 0
3.2472e-07 -7.9145e-08 0
3.1175e-07 -8.0452e-08 0
3.1364e-07 -6.5107e-08 0
3.0035e-07 -6.6142e-08 0
3.0356e-07 -5.2654e-08 0
2.9001e-07 -5.3584e-08 0
2.9444e-07 -4.1487e-08 0
2.8069e-07 -4.2443e-08 0
2.862e-07 -3.1351e-08 0
2.7229e-07 -3.2433e-08 0
2.788e-07 -2.2028e-08 0
2.6475e-07 -2.3316e-08 0
2.7217e-07 -1.3328e-08 0
2.58e-07 -1.4889e-08 0
2.6627e-07 -5.0829e-09 0
2.5199e-07 -6.9766e-09 0
2.6107e-07 2.8575e-09 0
2.4666e-07 5.744e-10 0
2.5655e-07 1.0635e-08 0
2.4199e-07 7.9044e-09 0
2.5269e-07 1.8387e-08 0
2.3796e-07 1.5147e-08 0
2.495e-07 2.6254e-08 0
2.3456e-07 2.2433e-08 0
2.4699e-07 3.4384e-08 0
2.318e-07 2.9903e-08 0
2.4519e-07 4.2942e-08 0
2.2971e-07 3.7704e-08 0
2.4416e-07 5.2113e-08 0
2.2833e-07 4.6007e-08 0
2.4393e-07 6.2113e-08 0
2.277e-07 5.5008e-08 0
2.4457e-07 7.3198e-08 0
2.279e-07 6.494e-08 0
2.4615e-07 8.5666e-08 0
2.2899e-07 7.6083e-08 0
2.4873e-07 9.987e-08 0
2.3106e-07 8.8771e-08 0
2.5235e-07 1.1621e-07 0
2.3417e-07 1.034e-07 0
2.5702e-07 1.3513e-07 0
2.3837e-07 1.2042e-07 0
2.6269e-07 1.571e-07 0
2.4363e-07 1.4032e-07 0
2.6927e-07 1.8256e-07 0
2.4991e-07 1.6361e-07 0
2.7663e-07 2.1194e-07 0
2.5707e-07 1.9076e-07 0
3.729e-07 -2.0014e-07 0
3.6211e-07 -2.0891e-07 0
3.8888e-07 -2.3518e-07 0
3.5671e-07 -1.6901e-07 0
3.4557e-07 -1.7537e-07 0
3.4083e-07 -1.4189e-07 0
3.2915e-07 -1.4624e-07 0
3.2568e-07 -1.1858e-07 0
3.1341e-07 -1.2138e-07 0
3.1157e-07 -9.8656e-08 0
2.9874e-07 -1.0038e-07 0
2.9863e-07 -8.1625e-08 0
2.8533e-07 -8.2662e-08 0
2.8688e-07 -6.6988e-08 0
2.7322e-07 -6.7637e-08 0
2.7629e-07 -5.4295e-08 0
2.6236e-07 -5.4778e-08 0
2.6677e-07 -4.3163e-08 0
2.5267e-07 -4.3639e-08 0
2.5824e-07 -3.3269e-08 0
2.4401e-07 -3.3854e-08 0
2.506e-07 -2.435e-08 0
2.363e-07 -2.5129e-08 0
2.4376e-07 -1.6186e-08 0
2.2941e-07 -1.7224e-08 0
2.3766e-07 -8.5944e-09 0
2.2327e-07 -9.9441e-09 0
2.3225e-07 -1.416e-09 0
2.1782e-07 -3.1255e-09 0
2.2748e-07 5.489e-09 0
2.1298e-07 3.373e-09 0
2.2331e-07 1.225e-08 0
2.0874e-07 9.6783e-09 0
2.1975e-07 1.8993e-08 0
2.0506e-07 1.591e-08 0
2.1679e-07 2.5845e-08 0
2.0195e-07 2.2186e-08 0
2.1445e-07 3.2943e-08 0
1.994e-07 2.8631e-08 0
2.1276e-07 4.0439e-08 0
1.9745e-07 3.538e-08 0
2.1177e-07 4.8509e-08 0
1.9613e-07 4.259e-08 0
2.1154e-07 5.7363e-08 0
1.9552e-07 5.0446e-08 0
2.1215e-07 6.7256e-08 0
1.9568e-07 5.9173e-08 0
2.137e-07 7.8497e-08 0
1.9671e-07 6.9053e-08 0
2.1627e-07 9.1464e-08 0
1.9871e-07 8.0434e-08 0
2.1994e-07 1.066e-07 0
2.018e-07 9.3746e-08 0
2.2473e-07 1.2443e-07 0
2.0605e-07 1.095e-07 0
2.3063e-07 1.4548e-07 0
2.1149e-07 1.2828e-07 0
2.3753e-07 1.703e-07 0
2.1804e-07 1.5069e-07 0
2.4524e-07 1.9936e-07 0
2.2556e-07 1.7728e-07 0
3.3437e-07 -1.8264e-07 0
3.2308e-07 -1.9108e-07 0
3.5118e-07 -2.1896e-07 0
3.1743e-07 -1.5111e-07 0
3.0566e-07 -1.567e-07 0
3.0105e-07 -1.2441e-07 0
2.886e-07 -1.2775e-07 0
2.8575e-07 -1.0211e-07 0
2.7261e-07 -1.0387e-07 0
2.7182e-07 -8.3563e-08 0
2.5809e-07 -8.4326e-08 0
2.5932e-07 -6.8076e-08 0
2.4515e-07 -6.8289e-08 0
2.4819e-07 -5.5017e-08 0
2.3375e-07 -5.4992e-08 0
2.3833e-07 -4.3859e-08 0
2.2373e-07 -4.3806e-08 0
2.2959e-07 -3.4181e-08 0
2.1492e-07 -3.4238e-08 0
2.2183e-07 -2.565e-08 0
2.0715e-07 -2.5907e-08 0
2.1493e-07 -1.8004e-08 0
2.0028e-07 -1.8525e-08 0
2.0879e-07 -1.1032e-08 0
1.9418e-07 -1.1863e-08 0
2.0333e-07 -4.5651e-09 0
1.8877e-07 -5.7438e-09 0
1.9849e-07 1.5412e-09 0
1.8396e-07 -1.998e-11 0
1.9421e-07 7.4117e-09 0
1.797e-07 5.4324e-09 0
1.9047e-07 1.3161e-08 0
1.7594e-07 1.0723e-08 0
1.8725e-07 1.8899e-08 0
1.7267e-07 1.5956e-08 0
1.8455e-07 2.4738e-08 0
1.6988e-07 2.1232e-08 0
1.8239e-07 3.0799e-08 0
1.6756e-07 2.6659e-08 0
1.808e-07 3.7218e-08 0
1.6576e-07 3.2354e-08 0
1.7984e-07 4.4157e-08 0
1.6451e-07 3.8456e-08 0
1.7958e-07 5.1812e-08 0
1.6388e-07 4.5134e-08 0
1.8011e-07 6.0429e-08 0
1.6396e-07 5.2597e-08 0
1.8156e-07 7.0322e-08 0
1.6486e-07 6.1116e-08 0
1.8404e-07 8.1886e-08 0
1.6671e-07 7.1044e-08 0
1.8767e-07 9.5616e-08 0
1.6968e-07 8.2839e-08 0
1.9255e-07 1.1211e-07 0
1.739e-07 9.708e-08 0
1.9866e-07 1.3203e-07 0
1.7945e-07 1.1447e-07 0
2.0589e-07 1.5603e-07 0
1.8629e-07 1.3575e-07 0
2.1402e-07 1.8468e-07 0
1.9422e-07 1.6165e-07 0
2.9383e-07 -1.6327e-07 0
2.819e-07 -1.7118e-07 0
3.1162e-07 -2.0104e-07 0
2.7607e-07 -1.3155e-07 0
2.6347e-07 -1.3604e-07 0
2.593e-07 -1.0571e-07 0
2.4582e-07 -1.0773e-07 0
2.441e-07 -8.4952e-08 0
2.2984e-07 -8.5445e-08 0
2.3068e-07 -6.8255e-08 0
2.1587e-07 -6.7946e-08 0
2.1898e-07 -5.468e-08 0
2.0384e-07 -5.4043e-08 0
2.0881e-07 -4.3459e-08 0
1.9353e-07 -4.2787e-08 0
1.9996e-07 -3.4008e-08 0
1.8467e-07 -3.3471e-08 0
1.9222e-07 -2.5892e-08 0
1.7701e-07 -2.5589e-08 0
1.8542e-07 -1.8784e-08 0
1.7033e-07 -1.8776e-08 0
1.7942e-07 -1.244e-08 0
1.6448e-07 -1.2762e-08 0
1.741e-07 -6.6696e-09 0
1.593e-07 -7.3475e-09 0
1.6938e-07 -1.3231e-09 0
1.5472e-07 -2.3785e-09 0
1.6518e-07 3.7232e-09 0
1.5064e-07 2.2689e-09 0
1.6147e-07 8.5759e-09 0
1.4702e-07 6.6982e-09 0
1.582e-07 1.3332e-08 0
1.4381e-07 1.1e-08 0
1.5536e-07 1.8083e-08 0
1.4099e-07 1.5259e-08 0
1.5296e-07 2.2924e-08 0
1.3855e-07 1.9558e-08 0
1.51e-07 2.7958e-08 0
1.365e-07 2.3986e-08 0
1.4953e-07 3.3301e-08 0
1.3487e-07 2.8641e-08 0
1.4859e-07 3.9094e-08 0
1.3369e-07 3.3639e-08 0
1.4826e-07 4.5513e-08 0
1.3302e-07 3.9123e-08 0
1.4865e-07 5.2786e-08 0
1.3297e-07 4.5281e-08 0
1.499e-07 6.1214e-08 0
1.3366e-07 5.2359e-08 0
1.5218e-07 7.1199e-08 0
1.3526e-07 6.0695e-08 0
1.5567e-07 8.3278e-08 0
1.3797e-07 7.0757e-08 0
1.6052e-07 9.8142e-08 0
1.4201e-07 8.3184e-08 0
1.668e-07 1.1662e-07 0
1.4756e-07 9.8817e-08 0
1.7441e-07 1.3957e-07 0
1.5465e-07 1.1865e-07 0
1.8303e-07 1.677e-07 0
1.6305e-07 1.4364e-07 0
2.5078e-07 -1.4153e-07 0
2.3802e-07 -1.4861e-07 0
2.6976e-07 -1.8093e-07 0
2.3218e-07 -1.1005e-07 0
2.184e-07 -1.1294e-07 0
2.1527e-07 -8.5819e-08 0
2.0039e-07 -8.6119e-08 0
2.0064e-07 -6.7327e-08 0
1.8496e-07 -6.6351e-08 0
1.8826e-07 -5.3041e-08 0
1.7218e-07 -5.1611e-08 0
1.7783e-07 -4.1753e-08 0
1.6164e-07 -4.0308e-08 0
1.6901e-07 -3.26e-08 0
1.529e-07 -3.1359e-08 0
1.6147e-07 -2.4984e-08 0
1.4556e-07 -2.4052e-08 0
1.5497e-07 -1.849e-08 0
1.393e-07 -1.7915e-08 0
1.4931e-07 -1.2827e-08 0
1.339e-07 -1.263e-08 0
1.4434e-07 -7.7816e-09 0
1.2919e-07 -7.9725e-09 0
1.3995e-07 -3.1951e-09 0
1.2505e-07 -3.779e-09 0
1.3604e-07 1.0559e-09 0
1.2137e-07 7.3181e-11 0
1.3256e-07 5.0718e-09 0
1.1809e-07 3.6809e-09 0
1.2947e-07 8.9381e-09 0
1.1516e-07 7.1246e-09 0
1.2672e-07 1.2732e-08 0
1.1254e-07 1.0474e-08 0
1.2431e-07 1.6526e-08 0
1.1022e-07 1.3796e-08 0
1.2224e-07 2.0398e-08 0
1.0818e-07 1.7153e-08 0
1.2051e-07 2.4428e-08 0
1.0643e-07 2.0614e-08 0
1.1916e-07 2.8712e-08 0
1.0499e-07 2.4256e-08 0
1.1824e-07 3.3365e-08 0
1.039e-07 2.8169e-08 0
1.1783e-07 3.8535e-08 0
1.032e-07 3.247e-08 0
1.1802e-07 4.4418e-08 0
1.03e-07 3.731e-08 0
1.1899e-07 5.1286e-08 0
1.0341e-07 4.2897e-08 0
1.2092e-07 5.9523e-08 0
1.0463e-07 4.9529e-08 0
1.2408e-07 6.9679e-08 0
1.0689e-07 5.7647e-08 0
1.2873e-07 8.2536e-08 0
1.1052e-07 6.7915e-08 0
1.3507e-07 9.9138e-08 0
1.1586e-07 8.1319e-08 0
1.4305e-07 1.2069e-07 0
1.231e-07 9.9192e-08 0
1.5225e-07 1.4819e-07 0
1.3205e-07 1.2297e-07 0
2.045e-07 -1.1678e-07 0
1.9037e-07 -1.2221e-07 0
2.2503e-07 -1.5801e-07 0
1.8516e-07 -8.6423e-08 0
1.6958e-07 -8.6805e-08 0
1.6875e-07 -6.4963e-08 0
1.519e-07 -6.3079e-08 0
1.5549e-07 -4.968e-08 0
1.3809e-07 -4.7141e-08 0
1.4488e-07 -3.8392e-08 0
1.2744e-07 -3.5918e-08 0
1.3629e-07 -2.9706e-08 0
1.191e-07 -2.7586e-08 0
1.2921e-07 -2.2767e-08 0
1.1239e-07 -2.1093e-08 0
1.2328e-07 -1.7036e-08 0
1.0687e-07 -1.583e-08 0
1.1821e-07 -1.2165e-08 0
1.0222e-07 -1.142e-08 0
1.1383e-07 -7.92e-09 0
9.8234e-08 -7.6198e-09 0
1.0999e-07 -4.135e-09 0
9.4763e-08 -4.2646e-09 0
1.0659e-07 -6.8888e-10 0
9.1703e-08 -1.2365e-09 0
1.0356e-07 2.5115e-09 0
8.8978e-08 1.5526e-09 0
1.0085e-07 5.5411e-09 0
8.6534e-08 4.1718e-09 0
9.8418e-08 8.4635e-09 0
8.4333e-08 6.6782e-09 0
9.6237e-08 1.1336e-08 0
8.2348e-08 9.1217e-09 0
9.4296e-08 1.4214e-08 0
8.056e-08 1.1549e-08 0
9.2593e-08 1.7153e-08 0
7.8964e-08 1.4005e-08 0
9.1136e-08 2.0215e-08 0
7.756e-08 1.654e-08 0
8.9949e-08 2.3472e-08 0
7.6362e-08 1.9208e-08 0
8.9072e-08 2.701e-08 0
7.5396e-08 2.2075e-08 0
8.8571e-08 3.0944e-08 0
7.4705e-08 2.5224e-08 0
8.8545e-08 3.5428e-08 0
7.4362e-08 2.8766e-08 0
8.9142e-08 4.0683e-08 0
7.4473e-08 3.2857e-08 0
9.0577e-08 4.7037e-08 0
7.521e-08 3.7729e-08 0
9.3161e-08 5.5004e-08 0
7.6826e-08 4.3745e-08 0
9.7303e-08 6.5401e-08 0
7.9717e-08 5.1508e-08 0
1.0344e-07 7.9523e-08 0
8.4426e-08 6.2053e-08 0
1.1173e-07 9.9105e-08 0
9.1513e-08 7.713e-08 0
1.2166e-07 1.2583e-07 0
1.0097e-07 9.9132e-08 0
1.5366e-07 -8.7745e-08 0
1.3795e-07 -9.075e-08 0
1.7601e-07 -1.3058e-07 0
1.3428e-07 -6.0593e-08 0
1.1583e-07 -5.7607e-08 0
1.1979e-07 -4.3847e-08 0
1.0036e-07 -3.9553e-08 0
1.0921e-07 -3.279e-08 0
9.0021e-08 -2.885e-08 0
1.0125e-07 -2.4934e-08 0
8.2634e-08 -2.1662e-08 0
9.5046e-08 -1.8995e-08 0
7.712e-08 -1.6418e-08 0
9.0047e-08 -1.4277e-08 0
7.2785e-08 -1.2344e-08 0
8.5905e-08 -1.0383e-08 0
6.9255e-08 -9.0353e-09 0
8.2391e-08 -7.067e-09 0
6.6295e-08 -6.2513e-09 0
7.9352e-08 -4.1681e-09 0
6.3755e-08 -3.8411e-09 0
7.6685e-08 -1.5743e-09 0
6.1537e-08 -1.703e-09 0
7.4315e-08 7.9555e-10 0
5.9569e-08 2.3545e-10 0
7.2189e-08 3.0039e-09 0
5.7805e-08 2.0283e-09 0
7.0268e-08 5.1009e-09 0
5.6208e-08 3.7182e-09 0
6.8526e-08 7.1293e-09 0
5.4753e-08 5.3405e-09 0
6.6944e-08 9.1276e-09 0
5.3423e-08 6.9264e-09 0
6.5512e-08 1.1133e-08 0
5.2205e-08 8.5049e-09 0
6.4226e-08 1.3183e-08 0
5.1095e-08 1.0105e-08 0
6.3092e-08 1.532e-08 0
5.0091e-08 1.1757e-08 0
6.2123e-08 1.7592e-08 0
4.9201e-08 1.3496e-08 0
6.1349e-08 2.0058e-08 0
4.8438e-08 1.5363e-08 0
6.0813e-08 2.2797e-08 0
4.783e-08 1.741e-08 0
6.059e-08 2.5913e-08 0
4.7421e-08 1.9706e-08 0
6.0796e-08 2.9561e-08 0
4.7282e-08 2.235e-08 0
6.1619e-08 3.398e-08 0
4.7534e-08 2.5488e-08 0
6.3367e-08 3.957e-08 0
4.8376e-08 2.9359e-08 0
6.6529e-08 4.7045e-08 0
5.018e-08 3.4395e-08 0
7.1874e-08 5.776e-08 0
5.3547e-08 4.1441e-08 0
8.0162e-08 7.4284e-08 0
5.969e-08 5.2489e-08 0
9.092e-08 9.9849e-08 0
6.9713e-08 7.1595e-08 0
9.6005e-08 -5.3856e-08 0
7.3594e-08 -4.799e-08 0
1.2184e-07 -9.8237e-08 0
7.9622e-08 -3.3985e-08 0
5.6783e-08 -2.6499e-08 0
6.9581e-08 -2.3909e-08 0
4.7721e-08 -1.7699e-08 0
6.3188e-08 -1.7691e-08 0
4.2839e-08 -1.2873e-08 0
5.8583e-08 -1.3313e-08 0
3.9449e-08 -9.6077e-09 0
5.5081e-08 -1.0004e-08 0
3.6967e-08 -7.2092e-09 0
5.228e-08 -7.359e-09 0
3.5014e-08 -5.3237e-09 0
4.9959e-08 -5.1614e-09 0
3.3414e-08 -3.7772e-09 0
4.7983e-08 -3.2777e-09 0
3.2061e-08 -2.4646e-09 0
4.6265e-08 -1.6207e-09 0
3.0889e-08 -1.3198e-09 0
4.4745e-08 -1.2996e-10 0
2.9854e-08 -2.976e-10 0
4.3381e-08 1.2388e-09 0
2.8925e-08 6.3422e-10 0
4.2146e-08 2.5197e-09 0
2.8082e-08 1.5002e-09 0
4.1016e-08 3.7406e-09 0
2.7309e-08 2.3199e-09 0
3.9978e-08 4.9253e-09 0
2.6595e-08 3.1096e-09 0
3.9019e-08 6.0954e-09 0
2.5931e-08 3.8839e-09 0
3.8134e-08 7.2719e-09 0
2.5312e-08 4.6563e-09 0
3.7319e-08 8.4761e-09 0
2.4733e-08 5.4406e-09 0
3.6575e-08 9.7316e-09 0
2.4195e-08 6.2511e-09 0
3.591e-08 1.1066e-08 0
2.3699e-08 7.1041e-09 0
3.5336e-08 1.2512e-08 0
2.3249e-08 8.0189e-09 0
3.4876e-08 1.4112e-08 0
2.2855e-08 9.0194e-09 0
3.457e-08 1.5926e-08 0
2.2535e-08 1.0138e-08 0
3.4482e-08 1.8039e-08 0
2.2317e-08 1.1417e-08 0
3.4724e-08 2.0582e-08 0
2.2253e-08 1.2925e-08 0
3.5506e-08 2.3786e-08 0
2.2433e-08 1.4766e-08 0
3.7198e-08 2.8075e-08 0
2.3048e-08 1.7137e-08 0
4.0762e-08 3.4495e-08 0
2.4421e-08 2.0413e-08 0
4.7705e-08 4.601e-08 0
2.7898e-08 2.5812e-08 0
6.0014e-08 7.0081e-08 0
3.5426e-08 3.7584e-08 0
2.9218e-08 -1.5781e-08 0
0 0 0
5.1056e-08 -4.3621e-08 0
2.444e-08 -1.0227e-08 0
0 0 0
2.1619e-08 -7.0457e-09 0
0 0 0
1.9839e-08 -5.2261e-09 0
0 0 0
1.8542e-08 -3.9064e-09 0
0 0 0
1.7541e-08 -2.8927e-09 0
0 0 0
1.6727e-08 -2.0721e-09 0
0 0 0
1.6041e-08 -1.383e-09 0
0 0 0
1.5448e-08 -7.8739e-10 0
0 0 0
1.4925e-08 -2.5973e-10 0
0 0 0
1.4455e-08 2.1783e-10 0
0 0 0
1.4027e-08 6.5858e-10 0
0 0 0
1.3634e-08 1.0729e-09 0
0 0 0
1.3269e-08 1.4693e-09 0
0 0 0
1.2927e-08 1.8552e-09 0
0 0 0
1.2606e-08 2.2374e-09 0
0 0 0
1.2303e-08 2.6224e-09 0
0 0 0
1.2017e-08 3.017e-09 0
0 0 0
1.1747e-08 3.4287e-09 0
0 0 0
1.1494e-08 3.866e-09 0
0 0 0
1.1261e-08 4.3392e-09 0
0 0 0
1.1053e-08 4.8615e-09 0
0 0 0
1.0878e-08 5.4507e-09 0
0 0 0
1.0753e-08 6.132e-09 0
0 0 0
1.0706e-08 6.9441e-09 0
0 0 0
1.079e-08 7.9526e-09 0
0 0 0
1.1106e-08 9.2691e-09 0
0 0 0
1.1942e-08 1.1316e-08 0
0 0 0
1.3824e-08 1.4657e-08 0
0 0 0
2.4109e-08 2.8603e-08 0
0 0 0
VECTORS vec double
0 0 0
0 0 0
0 0 0
0 0 0
0 0 0
0 0 0
0 0 0
0 0 0
0 0 0
0 0 0
0 0 0
0 0 0
0 0 0
0 0 0
0 0 0
0 0 0
0 0 0
0 0 0
0 0 0
0 0 0
0 0 0
0 0 0
0 0 0
0 0 0
0 0 0
0 0 0
0 0 0
0 0 0
0 0 0
0 0 0
0 0 0
0 0 0
0 0 0
0 0 0
0 0 0
0 0 0
0 0 0
0 0 0
0 0 0
0 0 0
0 0 0
0 0 0
0 0 0
0 0 0
0 0 0
0 0 0
0 0 0
0 0 0
0 0 0
0 0 0
0 0 0
0 0 0
0 0 0
0 0 0
0 0 0
0 0 0
0 0 0
0 0 0
0 0 0
0 0 0
0 0 0
0 0 0
0 0 0
0 0 0
0 0 0
0 0 0
0 0 0
0 0 0
0 0 0
0 0 0
0 0 0
0 0 0
0 0 0
0 0 0
0 0 0
0 0 0
0 0 0
0 0 0
0 0 0
0 0 0
0 0 0
0 0 0
0 0 0
0 0 0
0 0 0
0 0 0
0 0 0
0 0 0
0 0 0
0 0 0
0 0 0
0 0 0
0 0 0
0 0 0
0 0 0
0 0 0
0 0 0
0 0 0
0 0 0
0 0 0
0 0 0
0 0 0
0 0 0
0 0 0
0 0 0
0 0 0
0 0 0
0 0 0
0 0 0
0 0 0
0 0 0
0 0 0
0 0 0
0 0 0
0 0 0
0 0 0
0 0 0
0 0 0
0 0 0
0 0 0
0 0 0
0 0 0
0 0 0
0 0 0
0 0 0
0 0 0
0 0 0
0 0 0
0 0 0
0 0 0
0 0 0
0 0 0
0 0 0
0 0 0
0 0 0
0 0 0
0 0 0
0 0 0
0 0 0
0 0 0
0 0 0
0 0 0
0 0 0
0 0 0
0 0 0
0 0 0
0 0 0
0 0 0
0 0 0
0 0 0
0 0 0
0 0 0
0 0 0
0 0 0
0 0 0
0 0 0
0 0 0
0 0 0
0 0 0
0 0 0
0 0 0
0 0 0
0 0 0
0 0 0
0 0 0
0 0 0
0 0 0
0 0 0
0 0 0
0 0 0
0 0 0
0 0 0
0 0 0
0 0 0
0 0 0
0 0 0
0 0 0
0 0 0
0 0 0
0 0 0
0 0 0
0 0 0
0 0 0
0 0 0
0 0 0
0 0 0
0 0 0
0 0 0
0 0 0
0 0 0
0 0 0
0 0 0
0 0 0
0 0 0
0 0 0
0 0 0
0 0 0
0 0 0
0 0 0
0 0 0
0 0 0
0 0 0
0 0 0
0 0 0
0 0 0
0 0 0
0 0 0
0 0 0
0 0 0
0 0 0
0 0 0
0 0 0
0 0 0
0 0 0
0 0 0
0 0 0
0 0 0
0 0 0
0 0 0
0 0 0
0 0 0
0 0 0
0 0 0
0 0 0
0 0 0
0 0 0
0 0 0
0 0 0
0 0 0
0 0 0
0 0 0
0 0 0
0 0 0
0 0 0
0 0 0
0 0 0
0 0 0
0 0 0
0 0 0
0 0 0
0 0 0
0 0 0
0 0 0
0 0 0
0 0 0
0 0 0
0 0 0
0 0 0
0 0 0
0 0 0
0 0 0
0 0 0
0 0 0
0 0 0
0 0 0
0 0 0
0 0 0
0 0 0
0 0 0
0 0 0
0 0 0
0 0 0
0 0 0
0 0 0
0 0 0
0 0 0
0 0 0
0 0 0
0 0 0
0 0 0
0 0 0
0 0 0
0 0 0
0 0 0
0 0 0
0 0 0
0 0 0
0 0 0
0 0 0
0 0 0
0 0 0
0 0 0
0 0 0
0 0 0
0 0 0
0 0 0
0 0 0
0 0 0
0 0 0
0 0 0
0 0 0
0 0 0
0 0 0
0 0 0
0 0 0
0 0 0
0 0 0
0 0 0
0 0 0
0 0 0
0 0 0
0 0 0
0 0 0
0 0 0
0 0 0
0 0 0
0 0 0
0 0 0
0 0 0
0 0 0
0 0 0
0 0 0
0 0 0
0 0 0
0 0 0
0 0 0
0 0 0
0 0 0
0 0 0
0 0 0
0 0 0
0 0 0
0 0 0
0 0 0
0 0 0
0 0 0
0 0 0
0 0 0
0 0 0
0 0 0
0 0 0
0 0 0
0 0 0
0 0 0
0 0 0
0 0 0
0 0 0
0 0 0
0 0 0
0 0 0
0 0 0
0 0 0
0 0 0
0 0 0
0 0 0
0 0 0
0 0 0
0 0 0
0 0 0
0 0 0
0 0 0
0 0 0
0 0 0
0 0 0
0 0 0
0 0 0
0 0 0
0 0 0
0 0 0
0 0 0
0 0 0
0 0 0
0 0 0
0 0 0
0 0 0
0 0 0
0 0 0
0 0 0
0 0 0
0 0 0
0 0 0
0 0 0
0 0 0
0 0 0
0 0 0
0 0 0
0 0 0
0 0 0
0 0 0
0 0 0
0 0 0
0 0 0
0 0 0
0 0 0
0 0 0
0 0 0
0 0 0
0 0 0
0 0 0
0 0 0
0 0 0
0 0 0
0 0 0
0 0 0
0 0 0
0 0 0
0 0 0
0 0 0
0 0 0
0 0 0
0 0 0
0 0 0
0 0 0
0 0 0
0 0 0
0 0 0
0 0 0
0 0 0
0 0 0
0 0 0
0 0 0
0 0 0
0 0 0
0 0 0
0 0 0
0 0 0
0 0 0
0 0 0
0 0 0
0 0 0
0 0 0
0 0 0
0 0 0
0 0 0
0 0 0
0 0 0
0 0 0
0 0 0
0 0 0
0 0 0
0 0 0
0 0 0
0 0 0
0 0 0
0 0 0
0 0 0
0 0 0
0 0 0
0 0 0
0 0 0
0 0 0
0 0 0
0 0 0
0 0 0
0 0 0
0 0 0
0 0 0
0 0 0
0 0 0
0 0 0
0 0 0
0 0 0
0 0 0
0 0 0
0 0 0
0 0 0
0 0 0
0 0 0
0 0 0
0 0 0
0 0 0
0 0 0
0 0 0
0 0 0
0 0 0
0 0 0
0 0 0
0 0 0
0 0 0
0 0 0
0 0 0
0 0 0
0 0 0
0 0 0
0 0 0
0 0 0
0 0 0
0 0 0
0 0 0
0 0 0
0 0 0
0 0 0
0 0 0
0 0 0
0 0 0
0 0 0
0 0 0
0 0 0
0 0 0
0 0 0
0 0 0
0 0 0
0 0 0
0 0 0
0 0 0
0 0 0
0 0 0
0 0 0
0 0 0
0 0 0
0 0 0
0 0 0
0 0 0
0 0 0
0 0 0
0 0 0
0 0 0
0 0 0
0 0 0
0 0 0
0 0 0
0 0 0
0 0 0
0 0 0
0 0 0
0 0 0
0 0 0
0 0 0
0 0 0
0 0 0
0 0 0
0 0 0
0 0 0
0 0 0
0 0 0
0 0 0
0 0 0
0 0 0
0 0 0
0 0 0
0 0 0
0 0 0
0 0 0
0 0 0
0 0 0
0 0 0
0 0 0
0 0 0
0 0 0
0 0 0
0 0 0
0 0 0
0 0 0
0 0 0
0 0 0
0 0 0
0 0 0
0 0 0
0 0 0
0 0 0
0 0 0
0 0 0
0 0 0
0 0 0
0 0 0
0 0 0
0 0 0
0 0 0
0 0 0
0 0 0
0 0 0
0 0 0
0 0 0
0 0 0
0 0 0
0 0 0
0 0 0
0 0 0
0 0 0
0 0 0
0 0 0
0 0 0
0 0 0
0 0 0
0 0 0
0 0 0
0 0 0
0 0 0
0 0 0
0 0 0
0 0 0
0 0 0
0 0 0
0 0 0
0 0 0
0 0 0
0 0 0
0 0 0
0 0 0
0 0 0
0 0 0
0 0 0
0 0 0
0 0 0
0 0 0
0 0 0
0 0 0
0 0 0
0 0 0
0 0 0
0 0 0
0 0 0
0 0 0
0 0 0
0 0 0
0 0 0
0 0 0
0 0 0
0 0 0
0 0 0
0 0 0
0 0 0
0 0 0
0 0 0
0 0 0
0 0 0
0 0 0
0 0 0
0 0 0
0 0 0
0 0 0
0 0 0
0 0 0
0 0 0
0 0 0
0 0 0
0 0 0
0 0 0
0 0 0
0 0 0
0 0 0
0 0 0
0 0 0
0 0 0
0 0 0
0 0 0
0 0 0
0 0 0
0 0 0
0 0 0
0 0 0
0 0 0
0 0 0
0 0 0
0 0 0
0 0 0
0 0 0
0 0 0
0 0 0
0 0 0
0 0 0
0 0 0
0 0 0
0 0 0
0 0 0
0 0 0
0 0 0
0 0 0
0 0 0
0 0 0
0 0 0
0 0 0
0 0 0
0 0 0
0 0 0
0 0 0
0 0 0
0 0 0
0 0 0
0 0 0
0 0 0
0 0 0
0 0 0
0 0 0
0 0 0
0 0 0
0 0 0
0 0 0
0 0 0
0 0 0
0 0 0
0 0 0
0 0 0
0 0 0
0 0 0
0 0 0
0 0 0
0 0 0
0 0 0
0 0 0
0 0 0
0 0 0
0 0 0
0 0 0
0 0 0
0 0 0
0 0 0
0 0 0
0 0 0
0 0 0
0 0 0
0 0 0
0 0 0
0 0 0
0 0 0
0 0 0
0 0 0
0 0 0
0 0 0
0 0 0
0 0 0
0 0 0
0 0 0
0 0 0
0 0 0
0 0 0
0 0 0
0 0 0
0 0 0
0 0 0
0 0 0
0 0 0
0 0 0
0 0 0
0 0 0
0 0 0
0 0 0
0 0 0
0 0 0
0 0 0
0 0 0
0 0 0
0 0 0
0 0 0
0 0 0
0 0 0
0 0 0
0 0 0
0 0 0
0 0 0
0 0 0
0 0 0
0 0 0
0 0 0
0 0 0
0 0 0
0 0 0
0 0 0
0 0 0
0 0 0
0 0 0
0 0 0
0 0 0
0 0 0
0 0 0
0 0 0
0 0 0
0 0 0
0 0 0
0 0 0
0 0 0
0 0 0
0 0 0
0 0 0
0 0 0
0 0 0
0 0 0
0 0 0
0 0 0
0 0 0
0 0 0
0 0 0
0 0 0
0 0 0
0 0 0
0 0 0
0 0 0
0 0 0
0 0 0
0 0 0
0 0 0
0 0 0
0 0 0
0 0 0
0 0 0
0 0 0
0 0 0
0 0 0
0 0 0
0 0 0
0 0 0
0 0 0
0 0 0
0 0 0
0 0 0
0 0 0
0 0 0
0 0 0
0 0 0
0 0 0
0 0 0
0 0 0
0 0 0
0 0 0
0 0 0
0 0 0
0 0 0
0 0 0
0 0 0
0 0 0
0 0 0
0 0 0
0 0 0
0 0 0
0 0 0
0 0 0
0 0 0
0 0 0
0 0 0
0 0 0
0 0 0
0 0 0
0 0 0
0 0 0
0 0 0
0 0 0
0 0 0
0 0 0
0 0 0
0 0 0
0 0 0
0 0 0
0 0 0
0 0 0
0 0 0
0 0 0
0 0 0
0 0 0
0 0 0
0 0 0
0 0 0
0 0 0
0 0 0
0 0 0
0 0 0
0 0 0
0 0 0
0 0 0
0 0 0
0 0 0
0 0 0
0 0 0
0 0 0
0 0 0
0 0 0
0 0 0
0 0 0
0 0 0
0 0 0
0 0 0
0 0 0
0 0 0
0 0 0
0 0 0
0 0 0
0 0 0
0 0 0
0 0 0
0 0 0
0 0 0
0 0 0
0 0 0
0 0 0
0 0 0
0 0 0
0 0 0
0 0 0
0 0 0
0 0 0
0 0 0
0 0 0
0 0 0
0 0 0
0 0 0
0 0 0
0 0 0
0 0 0
0 0 0
0 0 0
0 0 0
0 0 0
0 0 0
0 0 0
0 0 0
0 0 0
0 0 0
0 0 0
0 0 0
0 0 0
0 0 0
0 0 0
0 0 0
0 0 0
0 0 0
0 0 0
0 0 0
0 0 0
0 0 0
0 0 0
0 0 0
0 0 0
0 0 0
0 0 0
0 0 0
0 0 0
0 0 0
0 0 0
0 0 0
0 0 0
0 0 0
0 0 0
0 0 0
0 0 0
0 0 0
0 0 0
0 0 0
0 0 0
0 0 0
0 0 0
0 0 0
0 0 0
0 0 0
0 0 0
0 0 0
0 0 0
0 0 0
0 0 0
0 0 0
0 0 0
0 0 0
0 0 0
0 0 0
0 0 0
0 0 0
0 0 0
0 0 0
0 0 0
0 0 0
0 0 0
0 0 0
0 0 0
0 0 0
0 0 0
0 0 0
0 0 0
0 0 0
0 0 0
0 0 0
0 0 0
0 0 0
0 0 0
0 0 0
0 0 0
0 0 0
0 0 0
0 0 0
0 0 0
0 0 0
0 0 0
0 0 0
0 0 0
0 0 0
0 0 0
0 0 0
0 0 0
0 0 0
0 0 0
0 0 0
0 0 0
0 0 0
0 0 0
0 0 0
0 0 0
0 0 0
0 0 0
0 0 0
0 0 0
0 0 0
0 0 0
0 0 0
0 0 0
0 0 0
0 0 0
0 0 0
0 0 0
0 0 0
0 0 0
0 0 0
0 0 0
0 0 0
0 0 0
0 0 0
0 0 0
0 0 0
0 0 0
0 0 0
0 0 0
0 0 0
0 0 0
0 0 0
0 0 0
0 0 0
0 0 0
0 0 0
0 0 0
0 0 0
0 0 0
0 0 0
0 0 0
0 0 0
0 0 0
0 0 0
0 0 0
0 0 0
0 0 0
0 0 0
0 0 0
0 0 0
0 0 0
0 0 0
0 0 0
0 0 0
0 0 0
0 0 0
0 0 0
0 0 0
0 0 0
0 0 0
0 0 0
0 0 0
0 0 0
0 0 0
0 0 0
0 0 0
0 0 0
0 0 0
0 0 0
0 0 0
0 0 0
0 0 0
0 0 0
0 0 0
0 0 0
0 0 0
0 0 0
0 0 0
0 0 0
0 0 0
0 0 0
0 0 0
0 0 0
0 0 0
0 0 0
0 0 0
0 0 0
0 0 0
0 0 0
0 0 0
0 0 0
0 0 0
0 0 0
0 0 0
0 0 0
0 0 0
0 0 0
0 0 0
0 0 0
0 0 0
0 0 0
0 0 0
0 0 0
0 0 0
0 0 0
0 0 0
0 0 0
0 0 0
0 0 0
0 0 0
0 0 0
0 0 0
0 0 0
0 0 0
0 0 0
0 0 0
0 0 0
0 0 0
0 0 0
0 0 0
0 0 0
0 0 0
0 0 0
0 0 0
0 0 0
0 0 0
0 0 0
0 0 0
0 0 0
0 0 0
0 0 0
0 0 0
0 0 0
0 0 0
0 0 0
0 0 0
0 0 0
0 0 0
0 0 0
0 0 0
0 0 0
0 0 0
0 0 0
0 0 0
0 0 0
0 0 0
0 0 0
0 0 0
0 0 0
0 0 0
0 0 0
0 0 0
0 0 0
0 0 0
0 0 0
0 0 0
0 0 0
0 0 0
0 0 0
0 0 0
0 0 0
0 0 0
0 0 0
0 0 0
0 0 0
0 0 0
0 0 0
0 0 0
0 0 0
0 0 0
0 0 0
0 0 0
0 0 0
0 0 0
0 0 0
0 0 0
0 0 0
0 0 0
0 0 0
0 0 0
0 0 0
0 0 0
0 0 0
0 0 0
0 0 0
0 0 0
0 0 0
0 0 0
0 0 0
0 0 0
0 0 0
0 0 0
0 0 0
0 0 0
0 0 0
0 0 0
0 0 0
0 0 0
0 0 0
0 0 0
0 0 0
0 0 0
0 0 0
0 0 0
0 0 0
0 0 0
0 0 0
0 0 0
0 0 0
0 0 0
0 0 0
0 0 0
0 0 0
0 0 0
0 0 0
0 0 0
0 0 0
0 0 0
0 0 0
0 0 0
0 0 0
0 0 0
0 0 0
0 0 0
0 0 0
0 0 0
0 0 0
0 0 0
0 0 0
0 0 0
0 0 0
0 0 0
0 0 0
0 0 0
0 0 0
0 0 0
0 0 0
0 0 0
0 0 0
0 0 0
0 0 0
0 0 0
0 0 0
0 0 0
0 0 0
0 0 0
0 0 0
0 0 0
0 0 0
0 0 0
0 0 0
0 0 0
0 0 0
0 0 0
0 0 0
0 0 0
0 0 0
0 0 0
0 0 0
0 0 0
0 0 0
0 0 0
0 0 0
0 0 0
0 0 0
0 0 0
0 0 0
0 0 0
0 0 0
0 0 0
0 0 0
0 0 0
0 0 0
0 0 0
0 0 0
0 0 0
0 0 0
0 0 0
0 0 0
0 0 0
0 0 0
0 0 0
0 0 0
0 0 0
0 0 0
0 0 0
0 0 0
0 0 0
0 0 0
0 0 0
0 0 0
0 0 0
0 0 0
0 0 0
0 0 0
0 0 0
0 0 0
0 0 0
0 0 0
0 0 0
0 0 0
0 0 0
0 0 0
0 0 0
0 0 0
0 0 0
0 0 0
0 0 0
0 0 0
0 0 0
0 0 0
0 0 0
0 0 0
0 0 0
0 0 0
0 0 0
0 0 0
0 0 0
0 0 0
0 0 0
0 0 0
0 0 0
0 0 0
0 0 0
0 0 0
0 0 0
0 0 0
0 0 0
0 0 0
0 0 0
0 0 0
0 0 0
0 0 0
0 0 0
0 0 0
0 0 0
0 0 0
0 0 0
0 0 0
0 0 0
0 0 0
0 0 0
0 0 0
0 0 0
0 0 0
0 0 0
0 0 0
0 0 0
0 0 0
0 0 0
0 0 0
0 0 0
0 0 0
0 0 0
0 0 0
0 0 0
0 0 0
0 0 0
0 0 0
0 0 0
0 0 0
0 0 0
0 0 0
0 0 0
0 0 0
0 0 0
0 0 0
0 0 0
0 0 0
0 0 0
0 0 0
0 0 0
0 0 0
0 0 0
0 0 0
0 0 0
0 0 0
0 0 0
0 0 0
0 0 0
0 0 0
0 0 0
0 0 0
0 0 0
0 0 0
0 0 0
0 0 0
0 0 0
0 0 0
0 0 0
0 0 0
0 0 0
0 0 0
0 0 0
0 0 0
0 0 0
0 0 0
0 0 0
0 0 0
0 0 0
0 0 0
0 0 0
0 0 0
0 0 0
0 0 0
0 0 0
0 0 0
0 0 0
0 0 0
0 0 0
0 0 0
0 0 0
0 0 0
0 0 0
0 0 0
0 0 0
0 0 0
0 0 0
0 0 0
0 0 0
0 0 0
0 0 0
0 0 0
0 0 0
0 0 0
0 0 0
0 0 0
0 0 0
0 0 0
0 0 0
0 0 0
0 0 0
0 0 0
0 0 0
0 0 0
0 0 0
0 0 0
0 0 0
0 0 0
0 0 0
0 0 0
0 0 0
0 0 0
0 0 0
0 0 0
0 0 0
0 0 0
0 0 0
0 0 0
0 0 0
0 0 0
0 0 0
0 0 0
0 0 0
0 0 0
0 0 0
0 0 0
0 0 0
0 0 0
0 0 0
0 0 0
0 0 0
0 0 0
0 0 0
0 0 0
0 0 0
0 0 0
0 0 0
0 0 0
0 0 0
0 0 0
0 0 0
0 0 0
0 0 0
0 0 0
0 0 0
0 0 0
0 0 0
0 0 0
0 0 0
0 0 0
0 0 0
0 0 0
0 0 0
0 0 0
0 0 0
0 0 0
0 0 0
0 0 0
0 0 0
0 0 0
0 0 0
0 0 0
0 0 0
0 0 0
0 0 0
0 0 0
0 0 0
0 0 0
0 0 0
0 0 0
0 0 0
0 0 0
0 0 0
0 0 0
0 0 0
0 0 0
0 0 0
0 0 0
0 0 0
0 0 0
0 0 0
0 0 0
0 0 0
0 0 0
0 0 0
0 0 0
0 0 0
0 0 0
0 0 0
0 0 0
0 0 0
0 0 0
0 0 0
0 0 0
0 0 0
0 0 0
0 0 0
0 0 0
0 0 0
0 0 0
0 0 0
0 0 0
0 0 0
0 0 0
0 0 0
0 0 0
0 0 0
0 0 0
0 0 0
0 0 0
0 0 0
0 0 0
0 0 0
0 0 0
0 0 0
0 0 0
0 0 0
0 0 0
0 0 0
0 0 0
0 0 0
0 0 0
0 0 0
0 0 0
0 0 0
0 0 0
0 0 0
0 0 0
0 0 0
0 0 0
0 0 0
0 0 0
0 0 0
0 0 0
0 0 0
0 0 0
0 0 0
0 0 0
0 0 0
0 0 0
0 0 0
0 0 0
0 0 0
0 0 0
0 0 0
0 0 0
0 0 0
0 0 0
0 0 0
0 0 0
0 0 0
0 0 0
0 0 0
0 0 0
0 0 0
0 0 0
0 0 0
0 0 0
0 0 0
0 0 0
0 0 0
0 0 0
0 0 0
0 0 0
0 0 0
0 0 0
0 0 0
0 0 0
0 0 0
0 0 0
0 0 0
0 0 0
0 0 0
0 0 0
0 0 0
0 0 0
0 0 0
0 0 0
0 0 0
0 0 0
0 0 0
0 0 0
0 0 0
0 0 0
0 0 0
0 0 0
0 0 0
0 0 0
0 0 0
0 0 0
0 0 0
0 0 0
0 0 0
0 0 0
0 0 0
0 0 0
0 0 0
0 0 0
0 0 0
0 0 0
0 0 0
0 0 0
0 0 0
0 0 0
0 0 0
0 0 0
0 0 0
0 0 0
0 0 0
0 0 0
0 0 0
0 0 0
0 0 0
0 0 0
0 0 0
0 0 0
0 0 0
0 0 0
0 0 0
0 0 0
0 0 0
0 0 0
0 0 0
0 0 0
0 0 0
0 0 0
0 0 0
0 0 0
0 0 0
0 0 0
0 0 0
0 0 0
0 0 0
0 0 0
0 0 0
0 0 0
0 0 0
0 0 0
0 0 0
0 0 0
0 0 0
0 0 0
0 0 0
0 0 0
0 0 0
0 0 0
0 0 0
0 0 0
0 0 0
0 0 0
0 0 0
0 0 0
0 0 0
0 0 0
0 0 0
0 0 0
0 0 0
0 0 0
0 0 0
0 0 0
0 0 0
0 0 0
0 0 0
0 0 0
0 0 0
0 0 0
0 0 0
0 0 0
0 0 0
0 0 0
0 0 0
0 0 0
0 0 0
0 0 0
0 0 0
0 0 0
0 0 0
0 0 0
0 0 0
0 0 0
0 0 0
0 0 0
0 0 0
0 0 0
0 0 0
0 0 0
0 0 0
0 0 0
0 0 0
0 0 0
0 0 0
0 0 0
0 0 0
0 0 0
0 0 0
0 0 0
0 0 0
0 0 0
0 0 0
0 0 0
0 0 0
0 0 0
0 0 0
0 0 0
0 0 0
0 0 0
0 0 0
0 0 0
0 0 0
0 0 0
0 0 0
0 0 0
0 0 0
0 0 0
0 0 0
0 0 0
0 0 0
0 0 0
0 0 0
0 0 0
0 0 0
0 0 0
0 0 0
0 0 0
0 0 0
0 0 0
0 0 0
0 0 0
0 0 0
0 0 0
0 0 0
0 0 0
0 0 0
0 0 0
0 0 0
0 0 0
0 0 0
0 0 0
0 0 0
0 0 0
0 0 0
0 0 0
0 0 0
0 0 0
0 0 0
0 0 0
0 0 0
0 0 0
0 0 0
0 0 0
0 0 0
0 0 0
0 0 0
0 0 0
0 0 0
0 0 0
0 0 0
0 0 0
0 0 0
0 0 0
0 0 0
0 0 0
0 0 0
0 0 0
0 0 0
0 0 0
0 0 0
0 0 0
0 0 0
0 0 0
0 0 0
0 0 0
0 0 0
0 0 0
0 0 0
0 0 0
0 0 0
0 0 0
0 0 0
0 0 0
0 0 0
0 0 0
0 0 0
0 0 0
0 0 0
0 0 0
0 0 0
0 0 0
0 0 0
0 0 0
0 0 0
0 0 0
0 0 0
0 0 0
0 0 0
0 0 0
0 0 0
0 0 0
0 0 0
0 0 0
0 0 0
0 0 0
0 0 0
0 0 0
0 0 0
0 0 0
0 0 0
0 0 0
0 0 0
0 0 0
0 0 0
0 0 0
0 0 0
0 0 0
0 0 0
0 0 0
0 0 0
0 0 0
0 0 0
0 0 0
0 0 0
0 0 0
0 0 0
0 0 0
0 0 0
0 0 0
0 0 0
0 0 0
0 0 0
0 0 0
0 0 0
0 0 0
0 0 0
0 0 0
0 0 0
0 0 0
0 0 0
0 0 0
0 0 0
0 0 0
0 0 0
0 0 0
0 0 0
0 0 0
0 0 0
0 0 0
0 0 0
0 0 0
0 0 0
0 0 0
0 0 0
0 0 0
0 0 0
0 0 0
0 0 0
0 0 0
0 0 0
0 0 0
0 0 0
0 0 0
0 0 0
0 0 0
0 0 0
0 0 0
0 0 0
0 0 0
0 0 0
0 0 0
0 0 0
0 0 0
0 0 0
0 0 0
0 0 0
0 0 0
0 0 0
0 0 0
0 0 0
0 0 0
0 0 0
0 0 0
0 0 0
0 0 0
0 0 0
0 0 0
0 0 0
0 0 0
0 0 0
0 0 0
0 0 0
0 0 0
0 0 0
0 0 0
0 0 0
0 0 0
0 0 0
0 0 0
0 0 0
0 0 0
0 0 0
0 0 0
0 0 0
0 0 0
0 0 0
0 0 0
0 0 0
0 0 0
0 0 0
0 0 0
0 0 0
0 0 0
0 0 0
0 0 0
0 0 0
0 0 0
0 0 0
0 0 0
0 0 0
0 0 0
0 0 0
0 0 0
0 0 0
0 0 0
0 0 0
0 0 0
0 0 0
0 0 0
0 0 0
0 0 0
0 0 0
0 0 0
0 0 0
0 0 0
0 0 0
0 0 0
0 0 0
0 0 0
0 0 0
0 0 0
0 0 0
0 0 0
0 0 0
0 0 0
0 0 0
0 0 0
0 0 0
0 0 0
0 0 0
0 0 0
0 0 0
0 0 0
0 0 0
0 0 0
0 0 0
0 0 0
0 0 0
0 0 0
0 0 0
0 0 0
0 0 0
0 0 0
0 0 0
0 0 0
0 0 0
0 0 0
0 0 0
0 0 0
0 0 0
0 0 0
0 0 0
0 0 0
0 0 0
0 0 0
0 0 0
0 0 0
0 0 0
0 0 0
0 0 0
0 0 0
0 0 0
0 0 0
0 0 0
0 0 0
0 0 0
0 0 0
0 0 0
0 0 0
0 0 0
0 0 0
0 0 0
0 0 0
0 0 0
0 0 0
0 0 0
0 0 0
0 0 0
0 0 0
0 0 0
0 0 0
0 0 0
0 0 0
0 0 0
0 0 0
0 0 0
0 0 0
0 0 0
0 0 0
0 0 0
0 0 0
0 0 0
0 0 0
0 0 0
0 0 0
0 0 0
0 0 0
0 0 0
0 0 0
0 0 0
0 0 0
0 0 0
0 0 0
0 0 0
0 0 0
0 0 0
0 0 0
0 0 0
0 0 0
0 0 0
0 0 0
0 0 0
0 0 0
0 0 0
0 0 0
0 0 0
0 0 0
0 0 0
0 0 0
0 0 0
0 0 0
0 0 0
0 0 0
0 0 0
0 0 0
0 0 0
0 0 0
0 0 0
0 0 0
0 0 0
0 0 0
0 0 0
0 0 0
0 0 0
0 0 0
0 0 0
0 0 0
0 0 0
0 0 0
0 0 0
0 0 0
0 0 0
0 0 0
0 0 0
0 0 0
0 0 0
0 0 0
0 0 0
0 0 0
0 0 0
0 0 0
0 0 0
0 0 0
0 0 0
0 0 0
0 0 0
0 0 0
0 0 0
0 0 0
0 0 0
0 0 0
0 0 0
0 0 0
0 0 0
0 0 0
0 0 0
0 0 0
0 0 0
0 0 0
0 0 0
0 0 0
0 0 0
0 0 0
0 0 0
0 0 0
0 0 0
0 0 0
0 0 0
0 0 0
0 0 0
0 0 0
0 0 0
0 0 0
0 0 0
0 0 0
0 0 0
0 0 0
0 0 0
0 0 0
0 0 0
0 0 0
0 0 0
0 0 0
0 0 0
0 0 0
0 0 0
0 0 0
0 0 0
0 0 0
0 0 0
0 0 0
0 0 0
0 0 0
0 0 0
0 0 0
0 0 0
0 0 0
0 0 0
0 0 0
0 0 0
0 0 0
0 0 0
0 0 0
0 0 0
0 0 0
0 0 0
0 0 0
0 0 0
0 0 0
0 0 0
0 0 0
0 0 0
0 0 0
0 0 0
0 0 0
0 0 0
0 0 0
0 0 0
0 0 0
0 0 0
0 0 0
0 0 0
0 0 0
0 0 0
0 0 0
0 0 0
0 0 0
0 0 0
0 0 0
0 0 0
0 0 0
0 0 0
0 0 0
0 0 0
0 0 0
0 0 0
0 0 0
0 0 0
0 0 0
0 0 0
0 0 0
0 0 0
0 0 0
0 0 0
0 0 0
0 0 0
0 0 0
0 0 0
0 0 0
0 0 0
0 0 0
0 0 0
0 0 0
0 0 0
0 0 0
0 0 0
0 0 0
0 0 0
0 0 0
0 0 0
0 0 0
0 0 0
0 0 0
0 0 0
0 0 0
0 0 0
0 0 0
0 0 0
0 0 0
0 0 0
0 0 0
0 0 0
0 0 0
0 0 0
0 0 0
0 0 0
0 0 0
0 0 0
0 0 0
0 0 0
0 0 0
0 0 0
0 0 0
0 0 0
0 0 0
0 0 0
0 0 0
0 0 0
0 0 0
0 0 0
0 0 0
0 0 0
0 0 0
0 0 0
0 0 0
0 0 0
0 0 0
0 0 0
0 0 0
0 0 0
0 0 0
0 0 0
0 0 0
0 0 0
0 0 0
0 0 0
0 0 0
0 0 0
0 0 0
0 0 0
0 0 0
0 0 0
0 0 0
0 0 0
0 0 0
0 0 0
0 0 0
0 0 0
0 0 0
0 0 0
0 0 0
0 0 0
0 0 0
0 0 0
0 0 0
0 0 0
0 0 0
0 0 0
0 0 0
0 0 0
0 0 0
0 0 0
0 0 0
0 0 0
0 0 0
0 0 0
0 0 0
0 0 0
0 0 0
0 0 0
0 0 0
0 0 0
0 0 0
0 0 0
0 0 0
0 0 0
0 0 0
0 0 0
0 0 0
0 0 0
0 0 0
0 0 0
0 0 0
0 0 0
0 0 0
0 0 0
0 0 0
0 0 0
0 0 0
0 0 0
0 0 0
0 0 0
0 0 0
0 0 0
0 0 0
0 0 0
0 0 0
0 0 0
0 0 0
0 0 0
0 0 0
0 0 0
0 0 0
0 0 0
0 0 0
0 0 0
0 0 0
0 0 0
0 0 0
0 0 0
0 0 0
0 0 0
0 0 0
0 0 0
0 0 0
0 0 0
0 0 0
0 0 0
0 0 0
0 0 0
0 0 0
0 0 0
0 0 0
0 0 0
0 0 0
0 0 0
0 0 0
0 0 0
0 0 0
0 0 0
0 0 0
0 0 0
0 0 0
0 0 0
0 0 0
0 0 0
0 0 0
0 0 0
0 0 0
0 0 0
0 0 0
0 0 0
0 0 0
0 0 0
0 0 0
0 0 0
0 0 0
0 0 0
0 0 0
0 0 0
0 0 0
0 0 0
0 0 0
0 0 0
0 0 0
0 0 0
0 0 0
0 0 0
0 0 0
0 0 0
0 0 0
0 0 0
0 0 0
0 0 0
0 0 0
0 0 0
0 0 0
0 0 0
0 0 0
0 0 0
0 0 0
0 0 0
0 0 0
0 0 0
0 0 0
0 0 0
0 0 0
0 0 0
0 0 0
0 0 0
0 0 0
0 0 0
0 0 0
0 0 0
0 0 0
0 0 0
0 0 0
0 0 0
0 0 0
0 0 0
0 0 0
0 0 0
0 0 0
0 0 0
0 0 0
0 0 0
0 0 0
0 0 0
0 0 0
0 0 0
0 0 0
0 0 0
0 0 0
0 0 0
0 0 0
0 0 0
0 0 0
0 0 0
0 0 0
0 0 0
0 0 0
0 0 0
0 0 0
0 0 0
0 0 0
0 0 0
0 0 0
0 0 0
0 0 0
0 0 0
0 0 0
0 0 0
0 0 0
0 0 0
0 0 0
0 0 0
0 0 0
0 0 0
0 0 0
0 0 0
0 0 0
0 0 0
0 0 0
0 0 0
0 0 0
0 0 0
0 0 0
0 0 0
0 0 0
0 0 0
0 0 0
0 0 0
0 0 0
0 0 0
0 0 0
0 0 0
0 0 0
0 0 0
0 0 0
0 0 0
0 0 0
0 0 0
0 0 0
0 0 0
0 0 0
0 0 0
0 0 0
0 0 0
0 0 0
0 0 0
0 0 0
0 0 0
0 0 0
0 0 0
0 0 0
0 0 0
0 0 0
0 0 0
0 0 0
0 0 0
0 0 0
0 0 0
0 0 0
0 0 0
0 0 0
0 0 0
0 0 0
0 0 0
0 0 0
0 0 0
0 0 0
0 0 0
0 0 0
0 0 0
0 0 0
0 0 0
0 0 0
0 0 0
0 0 0
0 0 0
0 0 0
0 0 0
0 0 0
0 0 0
0 0 0
0 0 0
0 0 0
0 0 0
0 0 0
0 0 0
0 0 0
0 0 0
0 0 0
0 0 0
0 0 0
0 0 0
0 0 0
0 0 0
0 0 0
0 0 0
0 0 0
0 0 0
0 0 0
0 0 0
0 0 0
0 0 0
0 0 0
0 0 0
0 0 0
0 0 0
0 0 0
0 0 0
0 0 0
0 0 0
0 0 0
0 0 0
0 0 0
0 0 0
0 0 0
0 0 0
0 0 0
0 0 0
0 0 0
0 0 0
0 0 0
0 0 0
0 0 0
0 0 0
0 0 0
0 0 0
0 0 0
0 0 0
0 0 0
0 0 0
0 0 0
0 0 0
0 0 0
0 0 0
0 0 0
0 0 0
0 0 0
0 0 0
0 0 0
0 0 0
0 0 0
0 0 0
0 0 0
0 0 0
0 0 0
0 0 0
0 0 0
0 0 0
0 0 0
0 0 0
0 0 0
0 0 0
0 0 0
0 0 0
0 0 0
0 0 0
0 0 0
0 0 0
0 0 0
0 0 0
0 0 0
0 0 0
0 0 0
0 0 0
0 0 0
0 0 0
0 0 0
0 0 0
0 0 0
0 0 0
0 0 0
0 0 0
0 0 0
0 0 0
0 0 0
0 0 0
0 0 0
0 0 0
0 0 0
0 0 0
0 0 0
0 0 0
0 0 0
0 0 0
0 0 0
0 0 0
0 0 0
0 0 0
0 0 0
0 0 0
0 0 0
0 0 0
0 0 0
0 0 0
0 0 0
0 0 0
0 0 0
0 0 0
0 0 0
0 0 0
0 0 0
0 0 0
0 0 0
0 0 0
0 0 0
0 0 0
0 0 0
0 0 0
0 0 0
0 0 0
0 0 0
0 0 0
0 0 0
0 0 0
0 0 0
0 0 0
0 0 0
0 0 0
0 0 0
0 0 0
0 0 0
0 0 0
0 0 0
0 0 0
0 0 0
0 0 0
0 0 0
0 0 0
0 0 0
0 0 0
0 0 0
0 0 0
0 0 0
0 0 0
0 0 0
0 0 0
0 0 0
0 0 0
0 0 0
0 0 0
0 0 0
0 0 0
0 0 0
0 0 0
0 0 0
0 0 0
0 0 0
0 0 0
0 0 0
0 0 0
0 0 0
0 0 0
0 0 0
0 0 0
0 0 0
0 0 0
0 0 0
0 0 0
0 0 0
0 0 0
0 0 0
0 0 0
0 0 0
0 0 0
0 0 0
0 0 0
0 0 0
0 0 0
0 0 0
0 0 0
0 0 0
0 0 0
0 0 0
0 0 0
0 0 0
0 0 0
0 0 0
0 0 0
0 0 0
0 0 0
0 0 0
0 0 0
0 0 0
0 0 0
0 0 0
0 0 0
0 0 0
0 0 0
0 0 0
0 0 0
0 0 0
0 0 0
0 0 0
0 0 0
0 0 0
0 0 0
0 0 0
0 0 0
0 0 0
0 0 0
0 0 0
0 0 0
0 0 0
0 0 0
0 0 0
0 0 0
0 0 0
0 0 0
0 0 0
0 0 0
0 0 0
0 0 0
0 0 0
0 0 0
0 0 0
0 0 0
0 0 0
0 0 0
0 0 0
0 0 0
0 0 0
0 0 0
0 0 0
0 0 0
0 0 0
0 0 0
0 0 0
0 0 0
0 0 0
0 0 0
0 0 0
0 0 0
0 0 0
0 0 0
0 0 0
0 0 0
0 0 0
0 0 0
0 0 0
0 0 0
0 0 0
0 0 0
0 0 0
0 0 0
0 0 0
0 0 0
0 0 0
0 0 0
0 0 0
0 0 0
0 0 0
0 0 0
0 0 0
0 0 0
0 0 0
0 0 0
0 0 0
0 0 0
0 0 0
0 0 0
0 0 0
0 0 0
0 0 0
0 0 0
0 0 0
0 0 0
0 0 0
0 0 0
0 0 0
0 0 0
0 0 0
0 0 0
0 0 0
0 0 0
0 0 0
0 0 0
0 0 0
0 0 0
0 0 0
0 0 0
0 0 0
0 0 0
0 0 0
0 0 0
0 0 0
0 0 0
0 0 0
0 0 0
0 0 0
0 0 0
0 0 0
0 0 0
0 0 0
0 0 0
0 0 0
0 0 0
0 0 0
0 0 0
0 0 0
0 0 0
0 0 0
0 0 0
0 0 0
0 0 0
0 0 0
0 0 0
0 0 0
0 0 0
0 0 0
0 0 0
0 0 0
0 0 0
0 0 0
0 0 0
0 0 0
0 0 0
0 0 0
0 0 0
0 0 0
0 0 0
0 0 0
0 0 0
0 0 0
0 0 0
0 0 0
0 0 0
0 0 0
0 0 0
0 0 0
0 0 0
0 0 0
0 0 0
0 0 0
0 0 0
0 0 0
0 0 0
0 0 0
0 0 0
0 0 0
0 0 0
0 0 0
0 0 0
0 0 0
0 0 0
0 0 0
0 0 0
0 0 0
0 0 0
0 0 0
0 0 0
0 0 0
0 0 0
0 0 0
0 0 0
0 0 0
0 0 0
0 0 0
0 0 0
0 0 0
0 0 0
0 0 0
0 0 0
0 0 0
0 0 0
0 0 0
0 0 0
0 0 0
0 0 0
0 0 0
0 0 0
0 0 0
0 0 0
0 0 0
0 0 0
0 0 0
0 0 0
0 0 0
0 0 0
0 0 0
0 0 0
0 0 0
0 0 0
0 0 0
0 0 0
0 0 0
0 0 0
0 0 0
0 0 0
0 0 0
0 0 0
0 0 0
0 0 0
0 0 0
0 0 0
0 0 0
0 0 0
0 0 0
0 0 0
0 0 0
0 0 0
0 0 0
0 0 0
0 0 0
0 0 0
0 0 0
0 0 0
0 0 0
0 0 0
0 0 0
0 0 0
0 0 0
0 0 0
0 0 0
0 0 0
0 0 0
0 0 0
0 0 0
0 0 0
0 0 0
0 0 0
0 0 0
0 0 0
0 0 0
0 0 0
0 0 0
0 0 0
0 0 0
0 0 0
0 0 0
0 0 0
0 0 0
0 0 0
0 0 0
0 0 0
0 0 0
0 0 0
0 0 0
0 0 0
0 0 0
0 0 0
0 0 0
0 0 0
0 0 0
0 0 0
0 0 0
0 0 0
0 0 0
0 0 0
0 0 0
0 0 0
0 0 0
0 0 0
0 0 0
0 0 0
0 0 0
0 0 0
0 0 0
0 0 0
0 0 0
0 0 0
0 0 0
0 0 0
0 0 0
0 0 0
0 0 0
0 0 0
0 0 0
0 0 0
0 0 0
0 0 0
0 0 0
0 0 0
0 0 0
0 0 0
0 0 0
0 0 0
0 0 0
0 0 0
0 0 0
0 0 0
0 0 0
0 0 0
0 0 0
0 0 0
0 0 0
0 0 0
0 0 0
0 0 0
0 0 0
0 0 0
0 0 0
0 0 0
0 0 0
0 0 0
0 0 0
0 0 0
0 0 0
0 0 0
0 0 0
0 0 0
0 0 0
0 0 0
0 0 0
0 0 0
0 0 0
0 0 0
0 0 0
0 0 0
0 0 0
0 0 0
0 0 0
0 0 0
0 0 0
0 0 0
0 0 0
0 0 0
0 0 0
0 0 0
0 0 0
0 0 0
0 0 0
0 0 0
0 0 0
0 0 0
0 0 0
0 0 0
0 0 0
0 0 0
0 0 0
0 0 0
0 0 0
0 0 0
0 0 0
0 0 0
0 0 0
0 0 0
0 0 0
0 0 0
0 0 0
0 0 0
0 0 0
0 0 0
0 0 0
0 0 0
0 0 0
0 0 0
0 0 0
0 0 0
0 0 0
0 0 0
0 0 0
0 0 0
0 0 0
0 0 0
0 0 0
0 0 0
0 0 0
0 0 0
0 0 0
0 0 0
0 0 0
0 0 0
0 0 0
0 0 0
0 0 0
0 0 0
0 0 0
0 0 0
0 0 0
0 0 0
0 0 0
0 0 0
0 0 0
0 0 0
0 0 0
0 0 0
0 0 0
0 0 0
0 0 0
0 0 0
0 0 0
0 0 0
0 0 0
0 0 0
0 0 0
0 0 0
0 0 0
0 0 0
0 0 0
0 0 0
0 0 0
0 0 0
0 0 0
0 0 0
0 0 0
0 0 0
0 0 0
0 0 0
0 0 0
0 0 0
0 0 0
0 0 0
0 0 0
0 0 0
0 0 0
0 0 0
0 0 0
0 0 0
0 0 0
0 0 0
0 0 0
0 0 0
0 0 0
0 0 0
0 0 0
0 0 0
0 0 0
0 0 0
0 0 0
0 0 0
0 0 0
0 0 0
0 0 0
0 0 0
0 0 0
0 0 0
0 0 0
0 0 0
0 0 0
0 0 0
0 0 0
0 0 0
0 0 0
0 0 0
0 0 0
0 0 0
0 0 0
0 0 0
0 0 0
0 0 0
0 0 0
0 0 0
0 0 0
0 0 0
0 0 0
0 0 0
0 0 0
0 0 0
0 0 0
0 0 0
0 0 0
0 0 0
0 0 0
0 0 0
0 0 0
0 0 0
0 0 0
0 0 0
0 0 0
0 0 0
0 0 0
0 0 0
0 0 0
0 0 0
0 0 0
0 0 0
0 0 0
0 0 0
0 0 0
0 0 0
0 0 0
0 0 0
0 0 0
0 0 0
0 0 0
0 0 0
0 0 0
0 0 0
0 0 0
0 0 0
0 0 0
0 0 0
0 0 0
0 0 0
0 0 0
0 0 0
0 0 0
0 0 0
0 0 0
0 0 0
0 0 0
0 0 0
0 0 0
0 0 0
0 0 0
0 0 0
0 0 0
0 0 0
0 0 0
0 0 0
0 0 0
0 0 0
0 0 0
0 0 0
0 0 0
0 0 0
0 0 0
0 0 0
0 0 0
0 0 0
0 0 0
0 0 0
0 0 0
0 0 0
0 0 0
0 0 0
0 0 0
0 0 0
0 0 0
0 0 0
0 0 0
0 0 0
0 0 0
0 0 0
0 0 0
0 0 0
0 0 0
0 0 0
0 0 0
0 0 0
0 0 0
0 0 0
0 0 0
0 0 0
0 0 0
0 0 0
0 0 0
0 0 0
0 0 0
0 0 0
0 0 0
0 0 0
0 0 0
0 0 0
0 0 0
0 0 0
0 0 0
0 0 0
0 0 0
0 0 0
0 0 0
0 0 0
0 0 0
0 0 0
0 0 0
0 0 0
0 0 0
0 0 0
0 0 0
0 0 0
0 0 0
0 0 0
0 0 0
0 0 0
0 0 0
0 0 0
0 0 0
0 0 0
0 0 0
0 0 0
0 0 0
0 0 0
0 0 0
0 0 0
0 0 0
0 0 0
0 0 0
0 0 0
0 0 0
0 0 0
0 0 0
0 0 0
0 0 0
0 0 0
0 0 0
0 0 0
0 0 0
0 0 0
0 0 0
0 0 0
0 0 0
0 0 0
0 0 0
0 0 0
0 0 0
0 0 0
0 0 0
0 0 0
0 0 0
0 0 0
0 0 0
0 0 0
0 0 0
0 0 0
0 0 0
0 0 0
0 0 0
0 0 0
0 0 0
0 0 0
0 0 0
0 0 0
0 0 0
0 0 0
0 0 0
0 0 0
0 0 0
0 0 0
0 0 0
0 0 0
0 0 0
0 0 0
0 0 0
0 0 0
0 0 0
0 0 0
0 0 0
0 0 0
0 0 0
0 0 0
0 0 0
0 0 0
0 0 0
0 0 0
0 0 0
0 0 0
0 0 0
0 0 0
0 0 0
0 0 0
0 0 0
0 0 0
0 0 0
0 0 0
0 0 0
0 0 0
0 0 0
0 0 0
0 0 0
0 0 0
0 0 0
0 0 0
0 0 0
0 0 0
0 0 0
0 0 0
0 0 0
0 0 0
0 0 0
0 0 0
0 0 0
0 0 0
0 0 0
0 0 0
0 0 0
0 0 0
0 0 0
0 0 0
0 0 0
0 0 0
0 0 0
0 0 0
0 0 0
0 0 0
0 0 0
0 0 0
0 0 0
0 0 0
0 0 0
0 0 0
0 0 0
0 0 0
0 0 0
0 0 0
0 0 0
0 0 0
0 0 0
0 0 0
0 0 0
0 0 0
0 0 0
0 0 0
0 0 0
0 0 0
0 0 0
0 0 0
0 0 0
0 0 0
0 0 0
0 0 0
0 0 0
0 0 0
0 0 0
0 0 0
0 0 0
0 0 0
0 0 0
0 0 0
0 0 0
0 0 0
0 0 0
0 0 0
0 0 0
0 0 0
0 0 0
0 0 0
0 0 0
0 0 0
0 0 0
0 0 0
0 0 0
0 0 0
0 0 0
0 0 0
0 0 0
0 0 0
0 0 0
0 0 0
0 0 0
0 0 0
0 0 0
0 0 0
0 0 0
0 0 0
0 0 0
0 0 0
0 0 0
0 0 0
0 0 0
0 0 0
0 0 0
0 0 0
0 0 0
0 0 0
0 0 0
0 0 0
0 0 0
0 0 0
0 0 0
0 0 0
0 0 0
0 0 0
0 0 0
0 0 0
0 0 0
0 0 0
0 0 0
0 0 0
0 0 0
0 0 0
0 0 0
0 0 0
0 0 0
0 0 0
0 0 0
0 0 0
0 0 0
0 0 0
0 0 0
0 0 0
0 0 0
0 0 0
0 0 0
0 0 0
0 0 0
0 0 0
0 0 0
0 0 0
0 0 0
0 0 0
0 0 0
0 0 0
0 0 0
0 0 0
0 0 0
0 0 0
0 0 0
0 0 0
0 0 0
0 0 0
0 0 0
0 0 0
0 0 0
0 0 0
0 0 0
0 0 0
0 0 0
0 0 0
0 0 0
0 0 0
0 0 0
0 0 0
0 0 0
0 0 0
0 0 0
0 0 0
0 0 0
0 0 0
0 0 0
0 0 0
0 0 0
0 0 0
0 0 0
0 0 0
0 0 0
0 0 0
0 0 0
0 0 0
0 0 0
0 0 0
0 0 0
0 0 0
0 0 0
0 0 0
0 0 0
0 0 0
0 0 0
0 0 0
0 0 0
0 0 0
0 0 0
0 0 0
0 0 0
0 0 0
0 0 0
0 0 0
0 0 0
0 0 0
0 0 0
0 0 0
0 0 0
0 0 0
0 0 0
0 0 0
0 0 0
0 0 0
0 0 0
0 0 0
0 0 0
0 0 0
0 0 0
0 0 0
0 0 0
0 0 0
0 0 0
0 0 0
0 0 0
0 0 0
0 0 0
0 0 0
0 0 0
0 0 0
0 0 0
0 0 0
0 0 0
0 0 0
0 0 0
0 0 0
0 0 0
0 0 0
0 0 0
0 0 0
0 0 0
0 0 0
0 0 0
0 0 0
0 0 0
0 0 0
0 0 0
0 0 0
0 0 0
0 0 0
0 0 0
0 0 0
0 0 0
0 0 0
0 0 0
0 0 0
0 0 0
0 0 0
0 0 0
0 0 0
0 0 0
0 0 0
0 0 0
0 0 0
0 0 0
0 0 0
0 0 0
0 0 0
0 0 0
0 0 0
0 0 0
0 0 0
0 0 0
0 0 0
0 0 0
0 0 0
0 0 0
0 0 0
0 0 0
0 0 0
0 0 0
0 0 0
0 0 0
0 0 0
0 0 0
0 0 0
0 0 0
0 0 0
0 0 0
0 0 0
0 0 0
0 0 0
0 0 0
0 0 0
0 0 0
0 0 0
0 0 0
0 0 0
0 0 0
0 0 0
0 0 0
0 0 0
0 0 0
0 0 0
0 0 0
0 0 0
0 0 0
0 0 0
0 0 0
0 0 0
0 0 0
0 0 0
0 0 0
0 0 0
0 0 0
0 0 0
0 0 0
0 0 0
0 0 0
0 0 0
0 0 0
0 0 0
0 0 0
0 0 0
0 0 0
0 0 0
0 0 0
0 0 0
0 0 0
0 0 0
0 0 0
0 0 0
0 0 0
0 0 0
0 0 0
0 0 0
0 0 0
0 0 0
0 0 0
0 0 0
0 0 0
0 0 0
0 0 0
0 0 0
0 0 0
0 0 0
0 0 0
0 0 0
0 0 0
0 0 0
0 0 0
0 0 0
0 0 0
0 0 0
0 0 0
0 0 0
0 0 0
0 0 0
0 0 0
0 0 0
0 0 0
0 0 0
0 0 0
0 0 0
0 0 0
0 0 0
0 0 0
0 0 0
0 0 0
0 0 0
0 0 0
0 0 0
0 0 0
0 0 0
0 0 0
0 0 0
0 0 0
0 0 0
0 0 0
0 0 0
0 0 0
0 0 0
0 0 0
0 0 0
0 0 0
0 0 0
0 0 0
0 0 0
0 0 0
0 0 0
0 0 0
0 0 0
0 0 0
0 0 0
0 0 0
0 0 0
0 0 0
0 0 0
0 0 0
0 0 0
0 0 0
0 0 0
0 0 0
0 0 0
0 0 0
0 0 0
0 0 0
0 0 0
0 0 0
0 0 0
0 0 0
0 0 0
0 0 0
0 0 0
0 0 0
0 0 0
0 0 0
0 0 0
0 0 0
0 0 0
0 0 0
0 0 0
0 0 0
0 0 0
0 0 0
0 0 0
0 0 0
0 0 0
0 0 0
0 0 0
0 0 0
0 0 0
0 0 0
0 0 0
0 0 0
0 0 0
0 0 0
0 0 0
0 0 0
0 0 0
0 0 0
0 0 0
0 0 0
0 0 0
0 0 0
0 0 0
0 0 0
0 0 0
0 0 0
0 0 0
0 0 0
0 0 0
0 0 0
0 0 0
0 0 0
0 0 0
0 0 0
0 0 0
0 0 0
0 0 0
0 0 0
0 0 0
0 0 0
0 0 0
0 0 0
0 0 0
0 0 0
0 0 0
0 0 0
0 0 0
0 0 0
0 0 0
0 0 0
0 0 0
0 0 0
0 0 0
0 0 0
0 0 0
0 0 0
0 0 0
0 0 0
0 0 0
0 0 0
0 0 0
0 0 0
0 0 0
0 0 0
0 0 0
0 0 0
0 0 0
0 0 0
0 0 0
0 0 0
0 0 0
0 0 0
0 0 0
0 0 0
0 0 0
0 0 0
0 0 0
0 0 0
0 0 0
0 0 0
0 0 0
0 0 0
0 0 0
0 0 0
0 0 0
0 0 0
0 0 0
0 0 0
0 0 0
0 0 0
0 0 0
0 0 0
0 0 0
0 0 0
0 0 0
0 0 0
0 0 0
0 0 0
0 0 0
0 0 0
0 0 0
0 0 0
0 0 0
0 0 0
0 0 0
0 0 0
0 0 0
0 0 0
0 0 0
0 0 0
0 0 0
0 0 0
0 0 0
0 0 0
0 0 0
0 0 0
0 0 0
0 0 0
0 0 0
0 0 0
0 0 0
0 0 0
0 0 0
0 0 0
0 0 0
0 0 0
0 0 0
0 0 0
0 0 0
0 0 0
0 0 0
0 0 0
0 0 0
0 0 0
0 0 0
0 0 0
0 0 0
0 0 0
0 0 0
0 0 0
0 0 0
0 0 0
0 0 0
0 0 0
0 0 0
0 0 0
0 0 0
0 0 0
0 0 0
0 0 0
0 0 0
0 0 0
0 0 0
0 0 0
0 0 0
0 0 0
0 0 0
0 0 0
0 0 0
0 0 0
0 0 0
0 0 0
0 0 0
0 0 0
0 0 0
0 0 0
0 0 0
0 0 0
0 0 0
0 0 0
0 0 0
0 0 0
0 0 0
0 0 0
0 0 0
0 0 0
0 0 0
0 0 0
0 0 0
0 0 0
0 0 0
0 0 0
0 0 0
0 0 0
0 0 0
0 0 0
0 0 0
0 0 0
0 0 0
0 0 0
0 0 0
0 0 0
0 0 0
0 0 0
0 0 0
0 0 0
0 0 0
0 0 0
0 0 0
0 0 0
0 0 0
0 0 0
0 0 0
0 0 0
0 0 0
0 0 0
0 0 0
0 0 0
0 0 0
0 0 0
0 0 0
0 0 0
0 0 0
0 0 0
0 0 0
0 0 0
0 0 0
0 0 0
0 0 0
0 0 0
0 0 0
0 0 0
0 0 0
0 0 0
0 0 0
0 0 0
0 0 0
0 0 0
0 0 0
0 0 0
0 0 0
0 0 0
0 0 0
0 0 0
0 0 0
0 0 0
0 0 0
0 0 0
0 0 0
0 0 0
0 0 0
0 0 0
0 0 0
0 0 0
0 0 0
0 0 0
0 0 0
0 0 0
0 0 0
0 0 0
0 0 0
0 0 0
0 0 0
0 0 0
0 0 0
0 0 0
0 0 0
0 0 0
0 0 0
0 0 0
0 0 0
0 0 0
0 0 0
0 0 0
0 0 0
0 0 0
0 0 0
0 0 0
0 0 0
0 0 0
0 0 0
0 0 0
0 0 0
0 0 0
0 0 0
0 0 0
0 0 0
0 0 0
0 0 0
0 0 0
0 0 0
0 0 0
0 0 0
0 0 0
0 0 0
0 0 0
0 0 0
0 0 0
0 0 0
0 0 0
0 0 0
0 0 0
0 0 0
0 0 0
0 0 0
0 0 0
0 0 0
0 0 0
0 0 0
0 0 0
0 0 0
0 0 0
0 0 0
0 0 0
0 0 0
0 0 0
0 0 0
0 0 0
0 0 0
0 0 0
0 0 0
0 0 0
0 0 0
0 0 0
0 0 0
0 0 0
0 0 0
0 0 0
0 0 0
0 0 0
0 0 0
0 0 0
0 0 0
0 0 0
0 0 0
0 0 0
0 0 0
0 0 0
0 0 0
0 0 0
0 0 0
0 0 0
0 0 0
0 0 0
0 0 0
0 0 0
0 0 0
0 0 0
0 0 0
0 0 0
0 0 0
0 0 0
0 0 0
0 0 0
0 0 0
0 0 0
0 0 0
0 0 0
0 0 0
0 0 0
0 0 0
0 0 0
0 0 0
0 0 0
0 0 0
0 0 0
0 0 0
0 0 0
0 0 0
0 0 0
0 0 0
0 0 0
0 0 0
0 0 0
0 0 0
0 0 0
0 0 0
0 0 0
0 0 0
0 0 0
0 0 0
0 0 0
0 0 0
0 0 0
0 0 0
0 0 0
0 0 0
0 0 0
0 0 0
0 0 0
0 0 0
0 0 0
0 0 0
0 0 0
0 0 0
0 0 0
0 0 0
0 0 0
0 0 0
0 0 0
0 0 0
0 0 0
0 0 0
0 0 0
0 0 0
0 0 0
0 0 0
0 0 0
0 0 0
0 0 0
0 0 0
0 0 0
0 0 0
0 0 0
0 0 0
0 0 0
0 0 0
0 0 0
0 0 0
0 0 0
0 0 0
0 0 0
0 0 0
0 0 0
0 0 0
0 0 0
0 0 0
0 0 0
0 0 0
0 0 0
0 0 0
0 0 0
0 0 0
0 0 0
0 0 0
0 0 0
0 0 0
0 0 0
0 0 0
0 0 0
0 0 0
0 0 0
0 0 0
0 0 0
0 0 0
0 0 0
0 0 0
0 0 0
0 0 0
0 0 0
0 0 0
0 0 0
0 0 0
0 0 0
0 0 0
0 0 0
0 0 0
0 0 0
0 0 0
0 0 0
0 0 0
0 0 0
0 0 0
0 0 0
0 0 0
0 0 0
0 0 0
0 0 0
0 0 0
0 0 0
0 0 0
0 0 0
0 0 0
0 0 0
0 0 0
0 0 0
0 0 0
0 0 0
0 0 0
0 0 0
0 0 0
0 0 0
0 0 0
0 0 0
0 0 0
0 0 0
0 0 0
0 0 0
0 0 0
0 0 0
0 0 0
0 0 0
0 0 0
0 0 0
0 0 0
0 0 0
0 0 0
0 0 0
0 0 0
0 0 0
0 0 0
0 0 0
0 0 0
0 0 0
0 0 0
0 0 0
0 0 0
0 0 0
0 0 0
0 0 0
0 0 0
0 0 0
0 0 0
0 0 0
0 0 0
0 0 0
0 0 0
0 0 0
0 0 0
0 0 0
0 0 0
0 0 0
0 0 0
0 0 0
0 0 0
0 0 0
0 0 0
0 0 0
0 0 0
0 0 0
0 0 0
0 0 0
0 0 0
0 0 0
0 0 0
0 0 0
0 0 0
0 0 0
0 0 0
0 0 0
0 0 0
0 0 0
0 0 0
0 0 0
0 0 0
0 0 0
0 0 0
0 0 0
0 0 0
0 0 0
0 0 0
0 0 0
0 0 0
0 0 0
0 0 0
0 0 0
0 0 0
0 0 0
0 0 0
0 0 0
0 0 0
0 0 0
0 0 0
0 0 0
0 0 0
0 0 0
0 0 0
0 0 0
0 0 0
0 0 0
0 0 0
0 0 0
0 0 0
0 0 0
0 0 0
0 0 0
0 0 0
0 0 0
0 0 0
0 0 0
0 0 0
0 0 0
0 0 0
0 0 0
0 0 0
0 0 0
0 0 0
0 0 0
0 0 0
0 0 0
0 0 0
0 0 0
0 0 0
0 0 0
0 0 0
0 0 0
0 0 0
0 0 0
0 0 0
0 0 0
0 0 0
0 0 0
0 0 0
0 0 0
0 0 0
0 0 0
0 0 0
0 0 0
0 0 0
0 0 0
0 0 0
0 0 0
0 0 0
0 0 0
0 0 0
0 0 0
0 0 0
0 0 0
0 0 0
0 0 0
0 0 0
0 0 0
0 0 0
0 0 0
0 0 0
0 0 0
0 0 0
0 0 0
0 0 0
0 0 0
0 0 0
0 0 0
0 0 0
0 0 0
0 0 0
0 0 0
0 0 0
0 0 0
0 0 0
0 0 0
0 0 0
0 0 0
0 0 0
0 0 0
0 0 0
0 0 0
0 0 0
0 0 0
0 0 0
0 0 0
0 0 0
0 0 0
0 0 0
0 0 0
0 0 0
0 0 0
0 0 0
0 0 0
0 0 0
0 0 0
0 0 0
0 0 0
0 0 0
0 0 0
0 0 0
0 0 0
0 0 0
0 0 0
0 0 0
0 0 0
0 0 0
0 0 0
0 0 0
0 0 0
0 0 0
0 0 0
0 0 0
0 0 0
0 0 0
0 0 0
0 0 0
0 0 0
0 0 0
0 0 0
0 0 0
0 0 0
0 0 0
0 0 0
0 0 0
0 0 0
0 0 0
0 0 0
0 0 0
0 0 0
0 0 0
0 0 0
0 0 0
0 0 0
0 0 0
0 0 0
0 0 0
0 0 0
0 0 0
0 0 0
0 0 0
0 0 0
0 0 0
0 0 0
0 0 0
0 0 0
0 0 0
0 0 0
0 0 0
0 0 0
0 0 0
0 0 0
0 0 0
0 0 0
0 0 0
0 0 0
0 0 0
0 0 0
0 0 0
0 0 0
0 0 0
0 0 0
0 0 0
0 0 0
0 0 0
0 0 0
0 0 0
0 0 0
0 0 0
0 0 0
0 0 0
0 0 0
0 0 0
0 0 0
0 0 0
0 0 0
0 0 0
0 0 0
0 0 0
0 0 0
0 0 0
0 0 0
0 0 0
0 0 0
0 0 0
0 0 0
0 0 0
0 0 0
0 0 0
0 0 0
0 0 0
0 0 0
0 0 0
0 0 0
0 0 0
0 0 0
0 0 0
0 0 0
0 0 0
0 0 0
0 0 0
0 0 0
0 0 0
0 0 0
0 0 0
0 0 0
0 0 0
0 0 0
0 0 0
0 0 0
0 0 0
0 0 0
0 0 0
0 0 0
0 0 0
0 0 0
0 0 0
0 0 0
0 0 0
0 0 0
0 0 0
0 0 0
0 0 0
0 0 0
0 0 0
0 0 0
0 0 0
0 0 0
0 0 0
0 0 0
0 0 0
0 0 0
0 0 0
0 0 0
0 0 0
0 0 0
0 0 0
0 0 0
0 0 0
0 0 0
0 0 0
0 0 0
0 0 0
0 0 0
0 0 0
0 0 0
0 0 0
0 0 0
0 0 0
0 0 0
0 0 0
0 0 0
0 0 0
0 0 0
0 0 0
0 0 0
0 0 0
0 0 0
0 0 0
0 0 0
0 0 0
0 0 0
0 0 0
0 0 0
0 0 0
0 0 0
0 0 0
0 0 0
0 0 0
0 0 0
0 0 0
0 0 0
0 0 0
0 0 0
0 0 0
0 0 0
0 0 0
0 0 0
0 0 0
0 0 0
0 0 0
0 0 0
0 0 0
0 0 0
0 0 0
0 0 0
0 0 0
0 0 0
0 0 0
0 0 0
0 0 0
0 0 0
0 0 0
0 0 0
0 0 0
0 0 0
0 0 0
0 0 0
0 0 0
0 0 0
0 0 0
0 0 0
0 0 0
0 0 0
0 0 0
0 0 0
0 0 0
0 0 0
0 0 0
0 0 0
0 0 0
0 0 0
0 0 0
0 0 0
0 0 0
0 0 0
0 0 0
0 0 0
0 0 0
0 0 0
0 0 0
0 0 0
0 0 0
0 0 0
0 0 0
0 0 0
0 0 0
0 0 0
0 0 0
0 0 0
0 0 0
0 0 0
0 0 0
0 0 0
0 0 0
0 0 0
0 0 0
0 0 0
0 0 0
0 0 0
0 0 0
0 0 0
0 0 0
0 0 0
0 0 0
0 0 0
0 0 0
0 0 0
0 0 0
0 0 0
0 0 0
0 0 0
0 0 0
0 0 0
0 0 0
0 0 0
0 0 0
0 0 0
0 0 0
0 0 0
0 0 0
0 0 0
0 0 0
0 0 0
0 0 0
0 0 0
0 0 0
0 0 0
0 0 0
0 0 0
0 0 0
0 0 0
0 0 0
0 0 0
0 0 0
0 0 0
0 0 0
0 0 0
0 0 0
0 0 0
0 0 0
0 0 0
0 0 0
0 0 0
0 0 0
0 0 0
0 0 0
0 0 0
0 0 0
0 0 0
0 0 0
0 0 0
0 0 0
0 0 0
0 0 0
0 0 0
0 0 0
0 0 0
0 0 0
0 0 0
0 0 0
0 0 0
0 0 0
0 0 0
0 0 0
0 0 0
0 0 0
0 0 0
0 0 0
0 0 0
0 0 0
0 0 0
0 0 0
0 0 0
0 0 0
0 0 0
0 0 0
0 0 0
0 0 0
0 0 0
0 0 0
0 0 0
0 0 0
0 0 0
0 0 0
0 0 0
0 0 0
0 0 0
0 0 0
0 0 0
0 0 0
0 0 0
0 0 0
0 0 0
0 0 0
0 0 0
0 0 0
0 0 0
0 0 0
0 0 0
0 0 0
0 0 0
0 0 0
0 0 0
0 0 0
0 0 0
0 0 0
0 0 0
0 0 0
0 0 0
0 0 0
0 0 0
0 0 0
0 0 0
0 0 0
0 0 0
0 0 0
0 0 0
0 0 0
0 0 0
0 0 0
0 0 0
0 0 0
0 0 0
0 0 0
0 0 0
0 0 0
0 0 0
0 0 0
0 0 0
0 0 0
0 0 0
0 0 0
0 0 0
0 0 0
0 0 0
0 0 0
0 0 0
0 0 0
0 0 0
0 0 0
0 0 0
0 0 0
0 0 0
0 0 0
0 0 0
0 0 0
0 0 0
0 0 0
0 0 0
0 0 0
0 0 0
0 0 0
0 0 0
0 0 0
0 0 0
0 0 0
0 0 0
0 0 0
0 0 0
0 0 0
0 0 0
0 0 0
0 0 0
0 0 0
0 0 0
0 0 0
0 0 0
0 0 0
0 0 0
0 0 0
0 0 0
0 0 0
0 0 0
0 0 0
0 0 0
0 0 0
0 0 0
0 0 0
0 0 0
0 0 0
0 0 0
0 0 0
0 0 0
0 0 0
0 0 0
0 0 0
0 0 0
0 0 0
0 0 0
0 0 0
0 0 0
0 0 0
0 0 0
0 0 0
0 0 0
0 0 0
0 0 0
0 0 0
0 0 0
0 0 0
0 0 0
0 0 0
0 0 0
0 0 0
0 0 0
0 0 0
0 0 0
0 0 0
0 0 0
0 0 0
0 0 0
0 0 0
0 0 0
0 0 0
0 0 0
0 0 0
0 0 0
0 0 0
0 0 0
0 0 0
0 0 0
0 0 0
0 0 0
0 0 0
0 0 0
0 0 0
0 0 0
0 0 0
0 0 0
0 0 0
0 0 0
0 0 0
0 0 0
0 0 0
0 0 0
0 0 0
0 0 0
0 0 0
0 0 0
0 0 0
0 0 0
0 0 0
0 0 0
0 0 0
0 0 0
0 0 0
0 0 0
0 0 0
0 0 0
0 0 0
0 0 0
0 0 0
0 0 0
0 0 0
0 0 0
0 0 0
0 0 0
0 0 0
0 0 0
0 0 0
0 0 0
0 0 0
0 0 0
0 0 0
0 0 0
0 0 0
0 0 0
0 0 0
0 0 0
0 0 0
0 0 0
0 0 0
0 0 0
0 0 0
0 0 0
0 0 0
0 0 0
0 0 0
0 0 0
0 0 0
0 0 0
0 0 0
0 0 0
0 0 0
0 0 0
0 0 0
0 0 0
0 0 0
0 0 0
0 0 0
0 0 0
0 0 0
0 0 0
0 0 0
0 0 0
0 0 0
0 0 0
0 0 0
0 0 0
0 0 0
0 0 0
0 0 0
0 0 0
0 0 0
0 0 0
0 0 0
0 0 0
0 0 0
0 0 0
0 0 0
0 0 0
0 0 0
0 0 0
0 0 0
0 0 0
0 0 0
0 0 0
0 0 0
0 0 0
0 0 0
0 0 0
0 0 0
0 0 0
0 0 0
0 0 0
0 0 0
0 0 0
0 0 0
0 0 0
0 0 0
0 0 0
0 0 0
0 0 0
0 0 0
0 0 0
0 0 0
0 0 0
0 0 0
0 0 0
0 0 0
0 0 0
0 0 0
0 0 0
0 0 0
0 0 0
0 0 0
0 0 0
0 0 0
0 0 0
0 0 0
0 0 0
0 0 0
0 0 0
0 0 0
0 0 0
0 0 0
0 0 0
0 0 0
0 0 0
0 0 0
0 0 0
0 0 0
0 0 0
0 0 0
0 0 0
0 0 0
0 0 0
0 0 0
0 0 0
0 0 0
0 0 0
0 0 0
0 0 0
0 0 0
0 0 0
0 0 0
0 0 0
0 0 0
0 0 0
0 0 0
0 0 0
0 0 0
0 0 0
0 0 0
0 0 0
0 0 0
0 0 0
0 0 0
0 0 0
0 0 0
0 0 0
0 0 0
0 0 0
0 0 0
0 0 0
0 0 0
0 0 0
0 0 0
0 0 0
0 0 0
0 0 0
0 0 0
0 0 0
0 0 0
0 0 0
0 0 0
0 0 0
0 0 0
0 0 0
0 0 0
0 0 0
0 0 0
0 0 0
0 0 0
0 0 0
0 0 0
0 0 0
0 0 0
0 0 0
0 0 0
0 0 0
0 0 0
0 0 0
0 0 0
0 0 0
0 0 0
0 0 0
0 0 0
0 0 0
0 0 0
0 0 0
0 0 0
0 0 0
0 0 0
0 0 0
0 0 0
0 0 0
0 0 0
0 0 0
0 0 0
0 0 0
0 0 0
0 0 0
0 0 0
0 0 0
0 0 0
0 0 0
0 0 0
0 0 0
0 0 0
0 0 0
0 0 0
0 0 0
0 0 0
0 0 0
0 0 0
0 0 0
0 0 0
0 0 0
0 0 0
0 0 0
0 0 0
0 0 0
0 0 0
0 0 0
0 0 0
0 0 0
0 0 0
0 0 0
0 0 0
0 0 0
0 0 0
0 0 0
0 0 0
0 0 0
0 0 0
0 0 0
0 0 0
0 0 0
0 0 0
0 0 0
0 0 0
0 0 0
0 0 0
0 0 0
0 0 0
0 0 0
0 0 0
0 0 0
0 0 0
0 0 0
0 0 0
0 0 0
0 0 0
0 0 0
0 0 0
0 0 0
0 0 0
0 0 0
0 0 0
0 0 0
0 0 0
0 0 0
0 0 0
0 0 0
0 0 0
0 0 0
0 0 0
0 0 0
0 0 0
0 0 0
0 0 0
0 0 0
0 0 0
0 0 0
0 0 0
0 0 0
0 0 0
0 0 0
0 0 0
0 0 0
0 0 0
0 0 0
0 0 0
0 0 0
0 0 0
0 0 0
0 0 0
0 0 0
0 0 0
0 0 0
0 0 0
0 0 0
0 0 0
0 0 0
0 0 0
0 0 0
0 0 0
0 0 0
0 0 0
0 0 0
0 0 0
0 0 0
0 0 0
0 0 0
0 0 0
0 0 0
0 0 0
0 0 0
0 0 0
0 0 0
0 0 0
0 0 0
0 0 0
0 0 0
0 0 0
0 0 0
0 0 0
0 0 0
0 0 0
0 0 0
0 0 0
0 0 0
0 0 0
0 0 0
0 0 0
0 0 0
0 0 0
0 0 0
0 0 0
0 0 0
0 0 0
0 0 0
0 0 0
0 0 0
0 0 0
0 0 0
0 0 0
0 0 0
0 0 0
0 0 0
0 0 0
0 0 0
0 0 0
0 0 0
0 0 0
0 0 0
0 0 0
0 0 0
0 0 0
0 0 0
0 0 0
0 0 0
0 0 0
0 0 0
0 0 0
0 0 0
0 0 0
0 0 0
0 0 0
0 0 0
0 0 0
0 0 0
0 0 0
0 0 0
0 0 0
0 0 0
0 0 0
0 0 0
0 0 0
0 0 0
0 0 0
0 0 0
0 0 0
0 0 0
0 0 0
0 0 0
0 0 0
0 0 0
0 0 0
0 0 0
0 0 0
0 0 0
0 0 0
0 0 0
0 0 0
0 0 0
0 0 0
0 0 0
0 0 0
0 0 0
0 0 0
0 0 0
0 0 0
0 0 0
0 0 0
0 0 0
0 0 0
0 0 0
0 0 0
0 0 0
0 0 0
0 0 0
0 0 0
0 0 0
0 0 0
0 0 0
0 0 0
0 0 0
0 0 0
0 0 0
0 0 0
0 0 0
0 0 0
0 0 0
0 0 0
0 0 0
0 0 0
0 0 0
0 0 0
0 0 0
0 0 0
0 0 0
0 0 0
0 0 0
0 0 0
0 0 0
0 0 0
0 0 0
0 0 0
0 0 0
0 0 0
0 0 0
0 0 0
0 0 0
0 0 0
0 0 0
0 0 0
0 0 0
0 0 0
0 0 0
0 0 0
0 0 0
0 0 0
0 0 0
0 0 0
0 0 0
0 0 0
0 0 0
0 0 0
0 0 0
0 0 0
0 0 0
0 0 0
0 0 0
0 0 0
0 0 0
0 0 0
0 0 0
0 0 0
0 0 0
0 0 0
0 0 0
0 0 0
0 0 0
0 0 0
0 0 0
0 0 0
0 0 0
0 0 0
0 0 0
0 0 0
0 0 0
0 0 0
0 0 0
0 0 0
0 0 0
0 0 0
0 0 0
0 0 0
0 0 0
0 0 0
0 0 0
0 0 0
0 0 0
0 0 0
0 0 0
0 0 0
0 0 0
0 0 0
0 0 0
0 0 0
0 0 0
0 0 0
0 0 0
0 0 0
0 0 0
0 0 0
0 0 0
0 0 0
0 0 0
0 0 0
0 0 0
0 0 0
0 0 0
0 0 0
0 0 0
0 0 0
0 0 0
0 0 0
0 0 0
0 0 0
0 0 0
0 0 0
0 0 0
0 0 0
0 0 0
0 0 0
0 0 0
0 0 0
0 0 0
0 0 0
0 0 0
0 0 0
0 0 0
0 0 0
0 0 0
0 0 0
0 0 0
0 0 0
0 0 0
0 0 0
0 0 0
0 0 0
0 0 0
0 0 0
0 0 0
0 0 0
0 0 0
0 0 0
0 0 0
0 0 0
0 0 0
0 0 0
0 0 0
0 0 0
0 0 0
0 0 0
0 0 0
0 0 0
0 0 0
0 0 0
0 0 0
0 0 0
0 0 0
0 0 0
0 0 0
0 0 0
0 0 0
0 0 0
0 0 0
0 0 0
0 0 0
0 0 0
0 0 0
0 0 0
0 0 0
0 0 0
0 0 0
0 0 0
0 0 0
0 0 0
0 0 0
0 0 0
0 0 0
0 0 0
0 0 0
0 0 0
0 0 0
0 0 0
0 0 0
0 0 0
0 0 0
0 0 0
0 0 0
0 0 0
0 0 0
0 0 0
0 0 0
0 0 0
0 0 0
0 0 0
0 0 0
0 0 0
0 0 0
0 0 0
0 0 0
0 0 0
0 0 0
0 0 0
0 0 0
0 0 0
0 0 0
0 0 0
0 0 0
0 0 0
0 0 0
0 0 0
0 0 0
0 0 0
0 0 0
0 0 0
0 0 0
0 0 0
0 0 0
0 0 0
0 0 0
0 0 0
0 0 0
0 0 0
0 0 0
0 0 0
0 0 0
0 0 0
0 0 0
0 0 0
0 0 0
0 0 0
0 0 0
0 0 0
0 0 0
0 0 0
0 0 0
0 0 0
0 0 0
0 0 0
0 0 0
0 0 0
0 0 0
0 0 0
0 0 0
0 0 0
0 0 0
0 0 0
0 0 0
0 0 0
0 0 0
0 0 0
0 0 0
0 0 0
0 0 0
0 0 0
0 0 0
0 0 0
0 0 0
0 0 0
0 0 0
0 0 0
0 0 0
0 0 0
0 0 0
0 0 0
0 0 0
0 0 0
0 0 0
0 0 0
0 0 0
0 0 0
0 0 0
0 0 0
0 0 0
CELL_DATA 1800
SCALARS SRR double 1
LOOKUP_TABLE srr
6.318659e-03
6.219406e-03
6.119906e-03
6.023712e-03
5.931397e-03
5.842318e-03
5.755339e-03
5.669128e-03
5.582283e-03
5.493377e-03
5.400978e-03
5.303643e-03
5.199903e-03
5.088251e-03
4.967112e-03
4.834816e-03
4.689571e-03
4.529424e-03
4.352220e-03
4.155563e-03
3.936762e-03
3.692775e-03
3.420155e-03
3.114983e-03
2.772820e-03
2.388672e-03
1.957037e-03
1.472127e-03
9.285466e-04
3.231965e-04
6.321361e-03
6.231313e-03
6.141414e-03
6.052061e-03
5.963478e-03
5.875469e-03
5.787443e-03
5.698547e-03
5.607769e-03
5.513990e-03
5.416016e-03
5.312595e-03
5.202410e-03
5.084076e-03
4.956122e-03
4.816977e-03
4.664940e-03
4.498157e-03
4.314589e-03
4.111977e-03
3.887807e-03
3.639268e-03
3.363216e-03
3.056138e-03
2.714123e-03
2.332866e-03
1.907687e-03
1.433602e-03
9.052451e-04
3.165368e-04
6.322855e-03
6.237656e-03
6.153234e-03
6.068531e-03
5.983088e-03
5.896522e-03
5.808352e-03
5.717945e-03
5.624525e-03
5.527195e-03
5.424960e-03
5.316737e-03
5.201359e-03
5.077569e-03
4.944016e-03
4.799239e-03
4.641649e-03
4.469512e-03
4.280919e-03
4.073765e-03
3.845720e-03
3.594195e-03
3.316316e-03
3.008892e-03
2.668383e-03
2.290868e-03
1.871975e-03
1.406737e-03
8.892199e-04
3.116755e-04
6.323825e-03
6.241170e-03
6.159785e-03
6.077928e-03
5.994615e-03
5.909191e-03
5.821092e-03
5.729729e-03
5.634432e-03
5.534441e-03
5.428902e-03
5.316868e-03
5.197301e-03
5.069067e-03
4.930933e-03
4.781552e-03
4.619453e-03
4.443026e-03
4.250496e-03
4.039909e-03
3.809104e-03
3.555683e-03
3.276987e-03
2.970049e-03
2.631551e-03
2.257740e-03
1.844291e-03
1.386052e-03
8.766081e-04
3.075019e-04
6.324578e-03
6.243396e-03
6.163576e-03
6.083226e-03
6.001087e-03
5.916280e-03
5.828116e-03
5.735966e-03
5.639187e-03
5.537087e-03
5.428901e-03
5.313781e-03
5.190796e-03
5.058919e-03
4.917023e-03
4.763872e-03
4.598108e-03
4.418238e-03
4.222616e-03
4.009423e-03
3.776644e-03
3.522035e-03
3.243092e-03
2.936998e-03
2.600549e-03
2.230047e-03
1.821129e-03
1.368489e-03
8.654819e-04
3.035670e-04
6.325240e-03
6.245033e-03
6.165957e-03
6.086231e-03
6.004514e-03
5.919802e-03
5.831303e-03
5.738329e-03
5.640226e-03
5.536325e-03
5.425915e-03
5.308217e-03
5.182379e-03
5.047464e-03
4.902439e-03
4.746165e-03
4.577388e-03
4.394722e-03
4.196635e-03
3.981425e-03
3.747195e-03
3.491823e-03
3.212915e-03
2.907746e-03
2.573175e-03
2.205522e-03
1.800389e-03
1.352414e-03
8.549488e-04
2.997003e-04
6.325860e-03
6.246407e-03
6.167649e-03
6.088009e-03
6.006188e-03
5.921145e-03
5.832028e-03
5.738104e-03
5.638698e-03
5.533146e-03
5.420764e-03
5.300821e-03
5.172526e-03
5.035011e-03
4.887322e-03
4.728407e-03
4.557100e-03
4.372110e-03
4.172001e-03
3.955169e-03
3.719815e-03
3.463909e-03
3.185138e-03
2.880842e-03
2.547923e-03
2.182719e-03
1.780843e-03
1.336973e-03
8.446095e-04
2.958388e-04
6.326460e-03
6.247673e-03
6.169032e-03
6.089179e-03
6.006920e-03
5.921237e-03
5.831263e-03
5.736245e-03
5.635491e-03
5.528340e-03
5.414121e-03
5.292138e-03
5.161645e-03
5.021830e-03
4.871804e-03
4.710586e-03
4.537088e-03
4.350098e-03
4.148261e-03
3.930057e-03
3.693765e-03
3.437429e-03
3.158801e-03
2.855275e-03
2.523795e-03
2.160743e-03
1.761790e-03
1.321726e-03
8.342830e-04
2.919581e-04
6.327051e-03
6.248910e-03
6.170309e-03
6.090100e-03
6.007210e-03
5.920684e-03
5.829677e-03
5.733435e-03
5.631266e-03
5.522511e-03
5.406515e-03
5.282605e-03
5.150071e-03
5.008148e-03
4.855998e-03
4.692701e-03
4.517232e-03
4.328449e-03
4.125066e-03
3.905631e-03
3.668492e-03
3.411754e-03
3.133227e-03
2.830362e-03
2.500156e-03
2.139059e-03
1.742840e-03
1.306452e-03
8.238886e-04
2.880495e-04
6.327640e-03
6.250156e-03
6.171589e-03
6.090972e-03
6.007359e-03
5.919874e-03
5.827715e-03
5.730149e-03
5.626497e-03
5.516110e-03
5.398350e-03
5.272564e-03
5.138073e-03
4.994149e-03
4.840001e-03
4.674757e-03
4.497449e-03
4.306990e-03
4.102157e-03
3.881558e-03
3.643598e-03
3.386443e-03
3.107961e-03
2.805661e-03
2.476613e-03
2.117355e-03
1.723785e-03
1.291043e-03
8.133928e-04
2.841103e-04
6.328230e-03
6.251430e-03
6.172929e-03
6.091909e-03
6.007546e-03
5.919048e-03
5.825668e-03
5.726711e-03
5.621519e-03
5.509464e-03
5.389925e-03
5.262274e-03
5.125858e-03
4.979983e-03
4.823896e-03
4.656769e-03
4.477682e-03
4.285601e-03
4.079354e-03
3.857604e-03
3.618813e-03
3.361203e-03
3.082706e-03
2.780899e-03
2.452936e-03
2.095461e-03
1.704519e-03
1.275449e-03
8.027837e-04
2.801403e-04
6.328825e-03
6.252743e-03
6.174356e-03
6.092972e-03
6.007873e-03
5.918350e-03
5.823721e-03
5.723331e-03
5.616559e-03
5.502800e-03
5.381457e-03
5.251926e-03
5.113583e-03
4.965763e-03
4.807750e-03
4.638757e-03
4.457904e-03
4.264205e-03
4.056538e-03
3.833617e-03
3.593961e-03
3.335851e-03
3.057285e-03
2.755917e-03
2.428996e-03
2.073289e-03
1.684994e-03
1.259655e-03
7.920598e-04
2.761399e-04
6.329425e-03
6.254102e-03
6.175887e-03
6.094193e-03
6.008396e-03
5.917867e-03
5.821986e-03
5.720147e-03
5.611767e-03
5.496273e-03
5.373095e-03
5.241658e-03
5.101363e-03
4.951579e-03
4.791623e-03
4.620743e-03
4.438103e-03
4.242760e-03
4.033639e-03
3.809508e-03
3.568939e-03
3.310279e-03
3.031597e-03
2.730631e-03
2.404736e-03
2.050804e-03
1.665198e-03
1.243660e-03
7.812238e-04
2.721097e-04
6.330034e-03
6.255510e-03
6.177528e-03
6.095587e-03
6.009145e-03
5.917646e-03
5.820529e-03
5.717242e-03
5.607240e-03
5.489987e-03
5.364945e-03
5.231566e-03
5.089285e-03
4.937499e-03
4.775560e-03
4.602754e-03
4.418283e-03
4.221249e-03
4.010624e-03
3.785229e-03
3.543696e-03
3.284436e-03
3.005596e-03
2.705008e-03
2.380133e-03
2.027999e-03
1.645132e-03
1.227470e-03
7.702798e-04
2.680500e-04
6.330654e-03
6.256970e-03
6.179282e-03
6.097161e-03
6.010134e-03
5.917711e-03
5.819389e-03
5.714664e-03
5.603038e-03
5.484009e-03
5.357074e-03
5.221720e-03
5.077410e-03
4.923576e-03
4.759603e-03
4.584816e-03
4.398457e-03
4.199673e-03
3.987484e-03
3.760766e-03
3.518212e-03
3.258305e-03
2.979273e-03
2.679043e-03
2.355192e-03
2.004884e-03
1.624808e-03
1.211094e-03
7.592317e-04
2.639605e-04
6.331287e-03
6.258486e-03
6.181153e-03
6.098918e-03
6.011369e-03
5.918074e-03
5.818583e-03
5.712442e-03
5.599195e-03
5.478380e-03
5.349530e-03
5.212164e-03
5.065782e-03
4.909849e-03
4.743787e-03
4.566957e-03
4.378647e-03
4.178046e-03
3.964228e-03
3.736124e-03
3.492494e-03
3.231894e-03
2.952636e-03
2.652750e-03
2.329929e-03
1.981477e-03
1.604242e-03
1.194543e-03
7.480825e-04
2.598408e-04
6.331934e-03
6.260060e-03
6.183143e-03
6.100859e-03
6.012852e-03
5.918739e-03
5.818122e-03
5.710591e-03
5.595734e-03
5.473127e-03
5.342342e-03
5.202933e-03
5.054435e-03
4.896351e-03
4.728140e-03
4.549204e-03
4.358874e-03
4.156389e-03
3.940875e-03
3.711323e-03
3.466560e-03
3.205221e-03
2.925708e-03
2.626152e-03
2.304367e-03
1.957796e-03
1.583448e-03
1.177824e-03
7.368344e-04
2.556901e-04
6.332598e-03
6.261698e-03
6.185254e-03
6.102987e-03
6.014584e-03
5.919710e-03
5.818010e-03
5.709119e-03
5.592665e-03
5.468266e-03
5.335530e-03
5.194049e-03
5.043395e-03
4.883109e-03
4.712690e-03
4.531584e-03
4.339167e-03
4.134728e-03
3.917450e-03
3.686387e-03
3.440438e-03
3.178315e-03
2.898516e-03
2.599276e-03
2.278531e-03
1.933863e-03
1.562440e-03
1.160945e-03
7.254888e-04
2.515073e-04
6.333281e-03
6.263403e-03
6.187492e-03
6.105305e-03
6.016569e-03
5.920988e-03
5.818250e-03
5.708031e-03
5.589999e-03
5.463809e-03
5.329109e-03
5.185529e-03
5.032680e-03
4.870143e-03
4.697459e-03
4.514120e-03
4.319548e-03
4.113088e-03
3.893981e-03
3.661345e-03
3.414155e-03
3.151206e-03
2.871089e-03
2.572148e-03
2.252444e-03
1.909696e-03
1.541232e-03
1.143912e-03
7.140458e-04
2.472914e-04
6.333985e-03
6.265180e-03
6.189861e-03
6.107817e-03
6.018808e-03
5.922576e-03
5.818846e-03
5.707332e-03
5.587739e-03
5.459763e-03
5.323089e-03
5.177386e-03
5.022306e-03
4.857472e-03
4.682468e-03
4.496834e-03
4.300043e-03
4.091496e-03
3.870494e-03
3.636226e-03
3.387741e-03
3.123921e-03
2.843454e-03
2.544796e-03
2.226128e-03
1.885312e-03
1.519833e-03
1.126728e-03
7.025052e-04
2.430410e-04
6.334714e-03
6.267034e-03
6.192368e-03
6.110530e-03
6.021309e-03
5.924480e-03
5.819802e-03
5.707026e-03
5.585892e-03
5.456135e-03
5.317478e-03
5.169631e-03
5.012286e-03
4.845110e-03
4.667734e-03
4.479745e-03
4.280673e-03
4.069974e-03
3.847015e-03
3.611055e-03
3.361223e-03
3.096488e-03
2.815638e-03
2.517240e-03
2.199601e-03
1.860724e-03
1.498251e-03
1.109397e-03
6.908662e-04
2.387547e-04
6.335469e-03
6.268972e-03
6.195021e-03
6.113451e-03
6.024078e-03
5.926705e-03
5.821124e-03
5.707118e-03
5.584464e-03
5.452932e-03
5.312284e-03
5.162272e-03
5.002630e-03
4.833068e-03
4.653269e-03
4.462869e-03
4.261454e-03
4.048541e-03
3.823564e-03
3.585855e-03
3.334622e-03
3.068929e-03
2.787661e-03
2.489500e-03
2.172879e-03
1.835943e-03
1.476493e-03
1.091920e-03
6.791275e-04
2.344313e-04
6.336253e-03
6.271000e-03
6.197827e-03
6.116589e-03
6.027124e-03
5.929261e-03
5.822820e-03
5.707616e-03
5.583460e-03
5.450158e-03
5.307512e-03
5.155314e-03
4.993341e-03
4.821354e-03
4.639081e-03
4.446215e-03
4.242398e-03
4.027210e-03
3.800155e-03
3.560640e-03
3.307957e-03
3.041260e-03
2.759539e-03
2.461590e-03
2.145973e-03
1.810978e-03
1.454563e-03
1.074299e-03
6.672880e-04
2.300696e-04
6.337068e-03
6.273124e-03
6.200796e-03
6.119954e-03
6.030457e-03
5.932155e-03
5.824897e-03
5.708525e-03
5.582884e-03
5.447816e-03
5.303163e-03
5.148757e-03
4.984423e-03
4.809968e-03
4.625172e-03
4.429785e-03
4.223508e-03
4.005988e-03
3.776797e-03
3.535421e-03
3.281237e-03
3.013493e-03
2.731284e-03
2.433520e-03
2.118892e-03
1.785833e-03
1.432463e-03
1.056533e-03
6.553462e-04
2.256686e-04
6.337916e-03
6.275350e-03
6.203936e-03
6.123556e-03
6.034087e-03
5.935398e-03
5.827362e-03
5.709850e-03
5.582739e-03
5.445907e-03
5.299234e-03
5.142598e-03
4.975869e-03
4.798903e-03
4.611536e-03
4.413574e-03
4.204782e-03
3.984871e-03
3.753489e-03
3.510198e-03
3.254464e-03
2.985631e-03
2.702899e-03
2.405294e-03
2.091640e-03
1.760513e-03
1.410196e-03
1.038623e-03
6.433010e-04
2.212274e-04
6.338802e-03
6.277686e-03
6.207257e-03
6.127407e-03
6.038024e-03
5.938998e-03
5.830221e-03
5.711594e-03
5.583023e-03
5.444424e-03
5.295718e-03
5.136825e-03
4.967664e-03
4.788144e-03
4.598157e-03
4.397566e-03
4.186203e-03
3.963846e-03
3.730218e-03
3.484963e-03
3.227634e-03
2.957672e-03
2.674383e-03
2.376913e-03
2.064216e-03
1.735016e-03
1.387761e-03
1.020567e-03
6.311514e-04
2.167454e-04
6.339725e-03
6.280137e-03
6.210768e-03
6.131516e-03
6.042279e-03
5.942962e-03
5.833478e-03
5.713755e-03
5.583730e-03
5.443357e-03
5.292596e-03
5.131415e-03
4.959783e-03
4.777663e-03
4.585003e-03
4.381731e-03
4.167742e-03
3.942886e-03
3.706962e-03
3.459696e-03
3.200729e-03
2.929601e-03
2.645726e-03
2.348370e-03
2.036617e-03
1.709341e-03
1.365156e-03
1.002365e-03
6.188968e-04
2.122222e-04
6.340690e-03
6.282711e-03
6.214478e-03
6.135891e-03
6.046857e-03
5.947293e-03
5.837131e-03
5.716325e-03
5.584845e-03
5.442681e-03
5.289838e-03
5.126332e-03
4.952184e-03
4.767413e-03
4.572029e-03
4.366021e-03
4.149353e-03
3.921949e-03
3.683682e-03
3.434362e-03
3.173721e-03
2.901397e-03
2.616912e-03
2.319651e-03
2.008835e-03
1.683483e-03
1.342379e-03
9.840161e-04
6.065369e-04
2.076580e-04
6.341699e-03
6.285413e-03
6.218394e-03
6.140542e-03
6.051764e-03
5.951990e-03
5.841171e-03
5.719285e-03
5.586338e-03
5.442358e-03
5.287397e-03
5.121521e-03
4.944806e-03
4.757330e-03
4.559166e-03
4.350369e-03
4.130972e-03
3.900972e-03
3.660321e-03
3.408912e-03
3.146567e-03
2.873024e-03
2.587912e-03
2.290738e-03
1.980854e-03
1.657433e-03
1.319426e-03
9.655187e-04
5.940721e-04
2.030529e-04
6.342753e-03
6.288248e-03
6.222524e-03
6.145471e-03
6.056998e-03
5.957044e-03
5.845579e-03
5.722606e-03
5.588167e-03
5.442333e-03
5.285205e-03
5.116903e-03
4.937562e-03
4.747322e-03
4.546320e-03
4.334681e-03
4.112508e-03
3.879872e-03
3.636802e-03
3.383277e-03
3.119210e-03
2.844434e-03
2.558689e-03
2.261601e-03
1.952657e-03
1.631180e-03
1.296291e-03
9.468712e-04
5.815029e-04
1.984078e-04
6.343855e-03
6.291223e-03
6.226871e-03
6.150679e-03
6.062553e-03
5.962438e-03
5.850322e-03
5.726239e-03
5.590267e-03
5.442524e-03
5.283166e-03
5.112370e-03
4.930334e-03
4.737265e-03
4.533367e-03
4.318834e-03
4.093842e-03
3.858536e-03
3.613025e-03
3.357370e-03
3.091573e-03
2.815565e-03
2.529194e-03
2.232205e-03
1.924218e-03
1.604707e-03
1.272967e-03
9.280721e-04
5.688306e-04
1.937238e-04
6.345007e-03
6.294340e-03
6.231439e-03
6.156163e-03
6.068412e-03
5.968139e-03
5.855350e-03
5.730112e-03
5.592544e-03
5.442819e-03
5.281148e-03
5.107776e-03
4.922967e-03
4.726997e-03
4.520141e-03
4.302666e-03
4.074820e-03
3.836823e-03
3.588861e-03
3.331077e-03
3.063560e-03
2.786339e-03
2.499365e-03
2.202502e-03
1.895505e-03
1.577997e-03
1.249444e-03
9.091192e-04
5.560571e-04
1.890024e-04
6.346211e-03
6.297603e-03
6.236224e-03
6.161909e-03
6.074549e-03
5.974099e-03
5.860591e-03
5.734125e-03
5.594873e-03
5.443064e-03
5.278977e-03
5.102928e-03
4.915254e-03
4.716306e-03
4.506432e-03
4.285973e-03
4.055249e-03
3.814554e-03
3.564150e-03
3.304258e-03
3.035054e-03
2.756658e-03
2.469127e-03
2.172438e-03
1.866480e-03
1.551025e-03
1.225712e-03
8.900107e-04
5.431848e-04
1.842456e-04
6.347468e-03
6.301012e-03
6.241221e-03
6.167898e-03
6.080918e-03
5.980247e-03
5.865939e-03
5.738140e-03
5.597079e-03
5.443055e-03
5.276421e-03
5.097574e-03
4.906931e-03
4.704922e-03
4.491973e-03
4.268497e-03
4.034887e-03
3.791509e-03
3.538696e-03
3.276746e-03
3.005914e-03
2.726410e-03
2.438391e-03
2.141949e-03
1.837099e-03
1.523767e-03
1.201759e-03
8.707444e-04
5.302169e-04
1.794561e-04
6.348780e-03
6.304567e-03
6.246418e-03
6.174095e-03
6.087459e-03
5.986481e-03
5.871252e-03
5.741970e-03
5.598934e-03
5.442523e-03
5.273181e-03
5.091391e-03
4.897662e-03
4.692506e-03
4.476430e-03
4.249921e-03
4.013440e-03
3.767422e-03
3.512266e-03
3.248340e-03
2.975973e-03
2.695462e-03
2.407056e-03
2.110959e-03
1.807314e-03
1.496192e-03
1.177572e-03
8.513188e-04
5.171576e-04
1.746369e-04
6.350148e-03
6.308263e-03
6.251794e-03
6.180452e-03
6.094080e-03
5.992664e-03
5.876337e-03
5.745366e-03
5.600134e-03
5.441120e-03
5.268869e-03
5.083969e-03
4.887023e-03
4.678635e-03
4.459393e-03
4.229856e-03
3.990552e-03
3.741974e-03
3.484583e-03
3.218807e-03
2.945043e-03
2.663664e-03
2.375011e-03
2.079391e-03
1.777073e-03
1.468272e-03
1.153138e-03
8.317336e-04
5.040122e-04
1.697916e-04
6.351572e-03
6.312093e-03
6.257317e-03
6.186897e-03
6.100657e-03
5.998607e-03
5.880936e-03
5.747999e-03
5.600287e-03
5.438397e-03
5.262996e-03
5.074787e-03
4.874484e-03
4.662785e-03
4.440359e-03
4.207834e-03
3.965797e-03
3.714792e-03
3.455328e-03
3.187882e-03
2.912912e-03
2.630855e-03
2.342135e-03
2.047161e-03
1.746323e-03
1.439979e-03
1.128449e-03
8.119904e-04
4.907876e-04
1.649248e-04
6.353051e-03
6.316043e-03
6.262942e-03
6.193332e-03
6.107023e-03
6.004058e-03
5.884709e-03
5.749443e-03
5.598886e-03
5.433780e-03
5.254938e-03
5.063197e-03
4.859390e-03
4.644314e-03
4.418719e-03
4.183294e-03
3.938674e-03
3.685440e-03
3.424135e-03
3.155271e-03
2.879349e-03
2.596862e-03
2.308308e-03
2.014191e-03
1.715017e-03
1.411291e-03
1.103497e-03
7.920948e-04
4.774931e-04
1.600415e-04
6.354585e-03
6.320095e-03
6.268605e-03
6.199622e-03
6.112948e-03
6.008684e-03
5.887209e-03
5.749140e-03
5.595277e-03
5.426540e-03
5.243914e-03
5.048391e-03
4.840934e-03
4.622444e-03
4.393743e-03
4.155574e-03
3.908600e-03
3.653423e-03
3.390598e-03
3.120653e-03
2.844113e-03
2.561513e-03
2.273416e-03
1.980412e-03
1.683123e-03
1.382196e-03
1.078289e-03
7.720581e-04
4.641411e-04
1.551478e-04
6.356171e-03
6.324219e-03
6.274216e-03
6.205584e-03
6.118131e-03
6.012043e-03
5.887852e-03
5.746374e-03
5.588627e-03
5.415755e-03
5.228946e-03
5.029371e-03
4.818133e-03
4.596235e-03
4.364564e-03
4.123897e-03
3.874905e-03
3.618182e-03
3.354270e-03
3.083687e-03
2.806961e-03
2.524650e-03
2.237366e-03
1.945780e-03
1.650629e-03
1.352705e-03
1.052842e-03
7.519008e-04
4.507483e-04
1.502510e-04
6.357807e-03
6.328377e-03
6.279653e-03
6.210971e-03
6.122165e-03
6.013553e-03
5.885879e-03
5.740220e-03
5.577876e-03
5.400265e-03
5.208820e-03
5.004912e-03
4.789794e-03
4.564564e-03
4.330159e-03
4.087363e-03
3.836826e-03
3.579098e-03
3.314674e-03
3.044030e-03
2.767666e-03
2.486142e-03
2.200102e-03
1.910292e-03
1.617562e-03
1.322857e-03
1.027198e-03
7.316575e-04
4.373379e-04
1.453597e-04
6.359485e-03
6.332511e-03
6.284751e-03
6.215452e-03
6.124513e-03
6.012450e-03
5.880300e-03
5.729489e-03
5.561677e-03
5.378618e-03
5.182034e-03
4.973520e-03
4.754481e-03
4.526100e-03
4.289336e-03
4.044944e-03
3.793511e-03
3.535501e-03
3.271316e-03
3.001348e-03
2.726035e-03
2.445909e-03
2.161629e-03
1.874006e-03
1.584008e-03
1.292742e-03
1.001432e-03
7.113824e-04
4.239417e-04
1.404843e-04
6.361198e-03
6.336545e-03
6.289282e-03
6.218578e-03
6.124457e-03
6.007727e-03
5.869833e-03
5.712659e-03
5.538326e-03
5.349001e-03
5.146742e-03
4.933385e-03
4.710483e-03
4.479281e-03
4.240719e-03
3.995477e-03
3.744022e-03
3.486678e-03
3.223700e-03
2.955343e-03
2.681939e-03
2.403955e-03
2.122044e-03
1.837075e-03
1.550135e-03
1.262515e-03
9.756683e-04
6.911587e-04
4.106035e-04
1.356375e-04
6.362934e-03
6.340371e-03
6.292936e-03
6.219745e-03
6.121040e-03
5.998058e-03
5.852806e-03
5.687779e-03
5.505678e-03
5.309168e-03
5.100690e-03
4.882333e-03
4.655780e-03
4.422293e-03
4.182742e-03
3.937665e-03
3.687345e-03
3.431894e-03
3.171352e-03
2.905778e-03
2.635341e-03
2.360403e-03
2.081579e-03
1.799782e-03
1.516232e-03
1.232430e-03
9.500995e-04
6.711098e-04
3.973845e-04
1.308351e-04
6.364675e-03
6.343839e-03
6.295285e-03
6.218130e-03
6.112976e-03
5.981687e-03
5.827047e-03
5.652352e-03
5.461033e-03
5.256345e-03
5.041149e-03
4.817782e-03
4.588014e-03
4.353062e-03
4.113649e-03
3.870093e-03
3.622407e-03
3.370410e-03
3.113851e-03
2.852516e-03
2.586346e-03
2.315540e-03
2.040641e-03
1.762592e-03
1.482754e-03
1.202876e-03
9.250162e-04
6.514165e-04
3.843691e-04
1.260971e-04
6.366394e-03
6.346737e-03
6.295737e-03
6.212606e-03
6.098526e-03
5.956282e-03
5.789721e-03
5.603188e-03
5.401014e-03
5.187136e-03
4.964849e-03
4.736700e-03
4.504474e-03
4.269252e-03
4.031509e-03
3.791243e-03
3.548100e-03
3.301517e-03
3.050858e-03
2.795552e-03
2.535234e-03
2.269871e-03
1.999881e-03
1.726212e-03
1.450379e-03
1.174433e-03
9.008450e-04
6.323397e-04
3.716753e-04
1.214487e-04
6.368056e-03
6.348766e-03
6.293456e-03
6.201604e-03
6.075320e-03
5.918721e-03
5.737120e-03
5.536215e-03
5.321421e-03
5.097419e-03
4.867919e-03
4.635588e-03
4.402107e-03
4.168291e-03
3.934246e-03
3.699529e-03
3.463317e-03
3.224562e-03
2.982149e-03
2.735056e-03
2.482515e-03
2.224175e-03
1.960257e-03
1.691672e-03
1.420096e-03
1.147937e-03
8.782046e-04
6.142547e-04
3.594680e-04
1.169231e-04
6.369605e-03
6.349487e-03
6.287243e-03
6.182919e-03
6.040086e-03
5.864807e-03
5.664393e-03
5.446256e-03
5.217067e-03
4.982264e-03
4.745864e-03
4.510497e-03
4.277559e-03
4.047433e-03
3.819699e-03
3.593353e-03
3.366992e-03
3.138984e-03
2.907644e-03
2.671395e-03
2.428962e-03
2.179561e-03
1.923113e-03
1.660422e-03
1.393303e-03
1.124592e-03
8.579860e-04
5.977016e-04
3.479803e-04
1.125644e-04
6.370956e-03
6.348250e-03
6.275347e-03
6.153385e-03
5.988254e-03
5.788852e-03
5.565181e-03
5.326764e-03
5.081634e-03
4.835877e-03
4.593593e-03
4.357107e-03
4.127284e-03
3.903856e-03
3.685717e-03
3.471173e-03
3.258146e-03
3.044341e-03
2.827416e-03
2.605147e-03
2.375628e-03
2.137508e-03
1.890256e-03
1.634439e-03
1.371950e-03
1.106102e-03
8.414741e-04
5.834634e-04
3.375468e-04
1.084325e-04
6.371977e-03
6.344061e-03
6.255139e-03
6.108379e-03
5.913358e-03
5.683098e-03
5.431162e-03
5.169539e-03
4.907557e-03
4.651633e-03
4.405541e-03
4.170904e-03
3.947722e-03
3.734836e-03
3.530290e-03
3.331597e-03
3.135940e-03
2.940316e-03
2.741673e-03
2.537061e-03
2.323827e-03
2.099877e-03
1.864018e-03
1.616363e-03
1.358728e-03
1.094893e-03
8.305387e-04
5.726957e-04
3.286594e-04
1.046134e-04
6.372450e-03
6.335333e-03
6.222540e-03
6.040968e-03
5.806102e-03
5.536919e-03
5.251517e-03
4.964488e-03
4.686041e-03
4.422268e-03
4.175957e-03
3.947483e-03
3.735594e-03
3.537990e-03
3.351734e-03
3.173497e-03
2.999720e-03
2.826703e-03
2.650690e-03
2.467969e-03
2.275031e-03
2.068847e-03
1.847275e-03
1.609622e-03
1.357303e-03
1.094415e-03
8.279322e-04
5.671347e-04
3.220586e-04
1.012256e-04
6.372031e-03
6.319492e-03
6.171076e-03
5.940560e-03
5.652984e-03
5.335767e-03
5.012372e-03
4.699549e-03
4.407327e-03
4.140333e-03
3.899419e-03
3.683050e-03
3.488319e-03
3.311598e-03
3.148914e-03
2.996135e-03
2.849045e-03
2.703353e-03
2.554681e-03
2.398587e-03
2.230655e-03
2.046728e-03
1.843356e-03
1.618515e-03
1.372616e-03
1.109621e-03
8.378197e-04
5.695168e-04
3.189336e-04
9.848201e-05
6.369956e-03
6.291858e-03
6.089739e-03
5.790381e-03
5.434164e-03
5.059910e-03
4.696452e-03
4.361032e-03
4.061425e-03
3.799055e-03
3.571658e-03
3.375115e-03
3.204570e-03
3.055006e-03
2.921503e-03
2.799293e-03
2.683707e-03
2.570069e-03
2.453576e-03
2.329201e-03
2.191664e-03
2.035560e-03
1.855746e-03
1.648155e-03
1.411186e-03
1.147618e-03
8.665739e-04
5.841824e-04
3.211845e-04
9.660237e-05
6.365417e-03
6.244613e-03
5.960138e-03
5.563695e-03
5.120552e-03
4.683242e-03
4.283423e-03
3.934830e-03
3.639608e-03
3.393762e-03
3.190745e-03
3.023411e-03
2.884922e-03
2.769062e-03
2.670249e-03
2.583396e-03
2.503711e-03
2.426461e-03
2.346735e-03
2.259211e-03
2.157964e-03
2.036388e-03
1.887379e-03
1.704036e-03
1.481259e-03
1.218650e-03
9.244760e-04
6.189405e-04
3.325382e-04
9.652872e-05
6.353733e-03
6.159027e-03
5.746203e-03
5.216294e-03
4.670461e-03
4.173390e-03
3.751972e-03
3.409185e-03
3.137003e-03
2.923948e-03
2.758594e-03
2.630910e-03
2.532520e-03
2.456529e-03
2.397200e-03
2.349598e-03
2.309243e-03
2.271773e-03
2.232604e-03
2.186568e-03
2.127547e-03
2.048108e-03
1.939291e-03
1.790811e-03
1.592347e-03
1.336951e-03
1.027705e-03
6.865712e-04
3.588567e-04
9.772111e-05
6.336978e-03
6.006572e-03
5.386043e-03
4.676403e-03
4.026917e-03
3.495288e-03
3.085383e-03
2.779727e-03
2.556386e-03
2.395823e-03
2.282550e-03
2.204759e-03
2.153592e-03
2.122345e-03
2.105824e-03
2.099809e-03
2.100626e-03
2.104749e-03
2.108418e-03
2.107207e-03
2.095507e-03
2.065884e-03
2.008329e-03
1.909554e-03
1.752970e-03
1.520973e-03
1.203356e-03
8.157342e-04
4.180843e-04
1.095205e-04
6.262371e-03
5.674937e-03
4.742334e-03
3.836972e-03
3.126679e-03
2.623635e-03
2.282521e-03
2.057054e-03
1.912704e-03
1.824771e-03
1.776587e-03
1.756790e-03
1.757611e-03
1.773635e-03
1.800968e-03
1.836664e-03
1.878296e-03
1.923591e-03
1.970085e-03
2.014703e-03
2.053212e-03
2.079427e-03
2.084031e-03
2.052833e-03
1.964595e-03
1.789239e-03
1.491216e-03
1.051938e-03
5.336409e-04
1.097895e-04
6.202368e-03
5.010066e-03
3.563720e-03
2.549007e-03
1.931381e-03
1.570203e-03
1.373811e-03
1.274844e-03
1.236540e-03
1.236450e-03
1.261349e-03
1.303142e-03
1.356836e-03
1.419307e-03
1.488583e-03
1.563382e-03
1.642806e-03
1.726093e-03
1.812380e-03
1.900411e-03
1.988109e-03
2.071893e-03
2.145485e-03
2.197761e-03
2.208932e-03
2.143153e-03
1.939773e-03
1.510522e-03
8.377525e-04
2.443995e-04
5.402237e-03
3.103900e-03
1.571212e-03
7.763597e-04
5.051088e-04
4.225333e-04
4.359741e-04
4.936959e-04
5.738404e-04
6.652479e-04
7.624668e-04
8.628412e-04
9.652261e-04
1.069315e-03
1.175291e-03
1.283626e-03
1.394971e-03
1.510072e-03
1.629695e-03
1.754523e-03
1.884988e-03
2.020946e-03
2.161030e-03
2.301312e-03
2.432316e-03
2.531616e-03
2.547375e-03
2.332986e-03
1.566215e-03
1.193557e-04
2.886440e-03
-1.367983e-03
-1.382169e-03
-1.165937e-03
-8.963898e-04
-6.432572e-04
-4.141989e-04
-2.083448e-04
-2.210558e-05
1.483224e-04
3.063281e-04
4.548441e-04
5.964121e-04
7.332831e-04
8.675117e-04
1.001042e-03
1.135785e-03
1.273695e-03
1.416847e-03
1.567517e-03
1.728282e-03
1.902122e-03
2.092538e-03
2.303663e-03
2.540063e-03
2.806725e-03
3.103166e-03
3.430237e-03
3.658291e-03
2.623271e-03
SCALARS SZZ double 1
LOOKUP_TABLE szz
-2.538536e-07
6.698071e-07
9.252324e-07
9.398349e-07
8.562145e-07
7.448354e-07
6.272344e-07
5.133849e-07
4.066762e-07
3.080741e-07
2.172578e-07
1.333047e-07
5.496883e-08
-1.917204e-08
-9.064885e-08
-1.610689e-07
-2.321002e-07
-3.054592e-07
-3.828909e-07
-4.661253e-07
-5.567819e-07
-6.561656e-07
-7.648407e-07
-8.816722e-07
-1.001839e-06
-1.111343e-06
-1.175951e-06
-1.095522e-06
-6.320307e-07
9.366825e-07
-1.572886e-06
5.381277e-06
7.971199e-06
8.385461e-06
7.886645e-06
7.011893e-06
6.009018e-06
4.991257e-06
4.009456e-06
3.083946e-06
2.219353e-06
1.411941e-06
6.533331e-07
-6.753840e-08
-7.633823e-07
-1.447966e-06
-2.135751e-06
-2.841592e-06
-3.580361e-06
-4.366312e-06
-5.211909e-06
-6.125572e-06
-7.107235e-06
-8.139407e-06
-9.168489e-06
-1.006417e-05
-1.052639e-05
-9.868159e-06
-6.506175e-06
2.811642e-06
1.096489e-06
1.506909e-05
2.072001e-05
2.194590e-05
2.094742e-05
1.889018e-05
1.638609e-05
1.375119e-05
1.114493e-05
8.642169e-06
6.270711e-06
4.031586e-06
1.910092e-06
-1.179727e-07
-2.082704e-06
-4.017884e-06
-5.959452e-06
-7.944178e-06
-1.000807e-05
-1.218399e-05
-1.449769e-05
-1.696067e-05
-1.955722e-05
-2.222023e-05
-2.478485e-05
-2.689814e-05
-2.784096e-05
-2.618118e-05
-1.912965e-05
-1.503247e-06
1.140826e-05
2.998815e-05
3.797940e-05
3.980575e-05
3.817183e-05
3.470564e-05
3.035837e-05
2.567212e-05
2.094674e-05
1.633828e-05
1.191679e-05
7.699990e-06
3.673307e-06
-1.981690e-07
-3.962233e-06
-7.674684e-06
-1.139571e-05
-1.518664e-05
-1.910615e-05
-2.320498e-05
-2.751764e-05
-3.204855e-05
-3.674861e-05
-4.147433e-05
-4.591652e-05
-4.947495e-05
-5.104125e-05
-4.863769e-05
-3.884029e-05
-1.591359e-05
3.035706e-05
5.050658e-05
5.936591e-05
6.106652e-05
5.842074e-05
5.328433e-05
4.683779e-05
3.981004e-05
3.263507e-05
2.555696e-05
1.869782e-05
1.210110e-05
5.759155e-06
-3.690589e-07
-6.346279e-06
-1.224879e-05
-1.816005e-05
-2.416480e-05
-3.034242e-05
-3.675792e-05
-4.344876e-05
-5.040422e-05
-5.753239e-05
-6.460711e-05
-7.118218e-05
-7.645525e-05
-7.905686e-05
-7.674078e-05
-6.596186e-05
-4.136727e-05
5.770245e-05
7.670568e-05
8.471615e-05
8.527641e-05
8.102803e-05
7.385393e-05
6.503960e-05
5.543204e-05
4.556693e-05
3.576429e-05
2.619639e-05
1.693483e-05
7.982691e-06
-7.034154e-07
-9.197871e-06
-1.759462e-05
-2.599784e-05
-3.451312e-05
-4.323761e-05
-5.224735e-05
-6.157952e-05
-7.120634e-05
-8.099578e-05
-9.065256e-05
-9.963020e-05
-1.070031e-04
-1.112884e-04
-1.102150e-04
-1.004590e-04
-7.741253e-05
9.270041e-05
1.083366e-04
1.138534e-04
1.121599e-04
1.055886e-04
9.591310e-05
8.441798e-05
7.199628e-05
5.924165e-05
4.652595e-05
3.406004e-05
2.193926e-05
1.017687e-05
-1.271565e-06
-1.248997e-05
-2.358761e-05
-3.468703e-05
-4.591240e-05
-5.737681e-05
-6.916631e-05
-8.131880e-05
-9.379445e-05
-1.064340e-04
-1.189000e-04
-1.305956e-04
-1.405558e-04
-1.473117e-04
-1.487355e-04
-1.418989e-04
-1.230046e-04
1.344119e-04
1.449285e-04
1.465060e-04
1.414760e-04
1.318186e-04
1.191217e-04
1.045931e-04
8.911085e-05
7.328280e-05
5.750396e-05
4.200637e-05
2.689949e-05
1.220209e-05
-2.133001e-06
-1.619930e-05
-3.012062e-05
-4.403686e-05
-5.809012e-05
-7.240959e-05
-8.709335e-05
-1.021852e-04
-1.176438e-04
-1.333021e-04
-1.488131e-04
-1.635798e-04
-1.766709e-04
-1.867239e-04
-1.918522e-04
-1.895830e-04
-1.768730e-04
1.818455e-04
1.858806e-04
1.823052e-04
1.729576e-04
1.594733e-04
1.432217e-04
1.252876e-04
1.064889e-04
8.741006e-05
6.844138e-05
4.981664e-05
3.164682e-05
1.394843e-05
-3.332875e-06
-2.030256e-05
-3.710025e-05
-5.388418e-05
-7.081573e-05
-8.804279e-05
-1.056803e-04
-1.237863e-04
-1.423324e-04
-1.611653e-04
-1.799606e-04
-1.981660e-04
-2.149387e-04
-2.290818e-04
-2.389949e-04
-2.426601e-04
-2.376923e-04
2.340209e-04
2.305267e-04
2.208075e-04
2.062928e-04
1.883038e-04
1.679864e-04
1.462790e-04
1.239093e-04
1.014101e-04
7.914253e-05
5.732365e-05
3.605223e-05
1.533305e-05
-4.901882e-06
-2.477445e-05
-4.444340e-05
-6.408826e-05
-8.389316e-05
-1.040294e-04
-1.246360e-04
-1.457958e-04
-1.675085e-04
-1.896566e-04
-2.119666e-04
-2.339658e-04
-2.549379e-04
-2.738848e-04
-2.895045e-04
-3.002034e-04
-3.041576e-04
2.899956e-04
2.781738e-04
2.615188e-04
2.411255e-04
2.180388e-04
1.931915e-04
1.673671e-04
1.411867e-04
1.151110e-04
8.945345e-05
6.439770e-05
4.001730e-05
1.629511e-05
-6.858249e-06
-2.958705e-05
-5.207420e-05
-7.452526e-05
-9.715232e-05
-1.201567e-04
-1.437097e-04
-1.679310e-04
-1.928634e-04
-2.184445e-04
-2.444755e-04
-2.705888e-04
-2.962186e-04
-3.205794e-04
-3.426622e-04
-3.612574e-04
-3.750156e-04
3.488751e-04
3.281251e-04
3.039137e-04
2.770630e-04
2.483790e-04
2.185990e-04
1.883537e-04
1.581494e-04
1.283626e-04
9.924490e-05
7.093342e-05
4.346464e-05
1.678958e-05
-9.210754e-06
-3.471004e-05
-5.992156e-05
-8.508304e-05
-1.104410e-04
-1.362345e-04
-1.626765e-04
-1.899348e-04
-2.181097e-04
-2.472106e-04
-2.771314e-04
-3.076274e-04
-3.382965e-04
-3.685691e-04
-3.977138e-04
-4.248642e-04
-4.490736e-04
4.098127e-04
3.796922e-04
3.474498e-04
3.136842e-04
2.789978e-04
2.439513e-04
2.090304e-04
1.746253e-04
1.410214e-04
1.083990e-04
7.683843e-05
4.632920e-05
1.678132e-05
-1.196202e-05
-4.011134e-05
-6.791730e-05
-9.565670e-05
-1.236180e-04
-1.520858e-04
-1.813247e-04
-2.115615e-04
-2.429666e-04
-2.756346e-04
-3.095660e-04
-3.446504e-04
-3.806556e-04
-4.172242e-04
-4.538845e-04
-4.900762e-04
-5.251977e-04
4.720073e-04
4.322012e-04
3.915763e-04
3.505478e-04
3.095439e-04
2.689688e-04
2.291730e-04
1.904329e-04
1.529406e-04
1.167991e-04
8.202447e-05
4.855103e-05
1.623982e-05
-1.511160e-05
-4.575804e-05
-7.599477e-05
-1.061451e-04
-1.365469e-04
-1.675393e-04
-1.994472e-04
-2.325668e-04
-2.671492e-04
-3.033855e-04
-3.413925e-04
-3.812014e-04
-4.227513e-04
-4.658908e-04
-5.103895e-04
-5.559620e-04
-6.023065e-04
5.346974e-04
4.849947e-04
4.357404e-04
3.871977e-04
3.396459e-04
2.933508e-04
2.485384e-04
2.053767e-04
1.639640e-04
1.243232e-04
8.640079e-05
5.006965e-05
1.513486e-05
-1.865871e-05
-5.161729e-05
-8.408806e-05
-1.164481e-04
-1.490928e-04
-1.824235e-04
-2.168345e-04
-2.527003e-04
-2.903622e-04
-3.301165e-04
-3.722033e-04
-4.167994e-04
-4.640148e-04
-5.138964e-04
-5.664390e-04
-6.216064e-04
-6.793621e-04
5.971562e-04
5.374316e-04
4.793900e-04
4.231673e-04
3.689153e-04
3.167769e-04
2.668648e-04
2.192442e-04
1.739218e-04
1.308391e-04
8.986961e-05
5.081988e-05
1.343330e-05
-2.260430e-05
-5.765724e-05
-9.213150e-05
-1.264653e-04
-1.611187e-04
-1.965633e-04
-2.332708e-04
-2.717021e-04
-3.122967e-04
-3.554628e-04
-4.015692e-04
-4.509408e-04
-5.038565e-04
-5.605542e-04
-6.212406e-04
-6.861083e-04
-7.553606e-04
6.586858e-04
5.888859e-04
5.219756e-04
4.579830e-04
3.969494e-04
3.389092e-04
2.838715e-04
2.318055e-04
1.826289e-04
1.362020e-04
9.232316e-05
5.072910e-05
1.109670e-05
-2.695274e-05
-6.384772e-05
-1.000595e-04
-1.360942e-04
-1.724838e-04
-2.097772e-04
-2.485311e-04
-2.892999e-04
-3.326279e-04
-3.790409e-04
-4.290406e-04
-4.831010e-04
-5.416685e-04
-6.051654e-04
-6.739996e-04
-7.485776e-04
-8.293236e-04
7.186120e-04
6.387449e-04
5.629507e-04
4.911652e-04
4.233336e-04
3.593939e-04
2.992608e-04
2.428133e-04
1.898841e-04
1.402528e-04
9.364187e-05
4.971534e-05
8.079739e-06
-3.171296e-05
-7.016092e-05
-1.078066e-04
-1.452304e-04
-1.830426e-04
-2.218766e-04
-2.623802e-04
-3.052080e-04
-3.510149e-04
-4.004491e-04
-4.541482e-04
-5.127369e-04
-5.768266e-04
-6.470201e-04
-7.239180e-04
-8.081302e-04
-9.002890e-04
7.762801e-04
6.864069e-04
6.017715e-04
5.222300e-04
4.476433e-04
3.778632e-04
3.127184e-04
2.520037e-04
1.954700e-04
1.428179e-04
9.369354e-05
4.768631e-05
4.329223e-06
-3.689927e-05
-7.657182e-05
-1.153076e-04
-1.537669e-04
-1.926448e-04
-2.326648e-04
-2.745721e-04
-3.191274e-04
-3.671010e-04
-4.192680e-04
-4.764048e-04
-5.392872e-04
-6.086917e-04
-6.853975e-04
-7.701931e-04
-8.638841e-04
-9.673033e-04
8.310506e-04
7.312788e-04
6.378961e-04
5.506891e-04
4.694444e-04
3.939363e-04
3.239151e-04
2.590964e-04
1.991532e-04
1.437089e-04
9.233296e-05
4.453891e-05
-2.164386e-07
-4.253173e-05
-8.305850e-05
-1.224976e-04
-1.615945e-04
-2.011344e-04
-2.419369e-04
-2.848501e-04
-3.307458e-04
-3.805146e-04
-4.350619e-04
-4.953058e-04
-5.621749e-04
-6.366100e-04
-7.195657e-04
-8.120149e-04
-9.149550e-04
-1.029415e-03
8.822957e-04
7.727742e-04
6.707837e-04
5.760502e-04
4.882943e-04
4.072206e-04
3.325072e-04
2.637961e-04
2.006854e-04
1.427229e-04
8.940198e-05
4.015908e-05
-5.627420e-06
-4.863645e-05
-8.960236e-05
-1.293121e-04
-1.686014e-04
-2.083507e-04
-2.494806e-04
-2.929473e-04
-3.397385e-04
-3.908693e-04
-4.473794e-04
-5.103308e-04
-5.808071e-04
-6.599140e-04
-7.487808e-04
-8.485643e-04
-9.604522e-04
-1.085669e-03
9.293968e-04
8.103112e-04
6.998935e-04
5.978163e-04
5.037417e-04
4.173116e-04
3.381377e-04
2.657927e-04
1.998031e-04
1.396429e-04
8.472977e-05
3.442199e-05
-1.198241e-05
-5.524551e-05
-9.618809e-05
-1.356873e-04
-1.746737e-04
-2.141277e-04
-2.550757e-04
-2.985868e-04
-3.457688e-04
-3.977656e-04
-4.557544e-04
-5.209443e-04
-5.945760e-04
-6.779215e-04
-7.722861e-04
-8.790107e-04
-9.994745e-04
-1.135098e-03
9.717416e-04
8.433108e-04
7.246834e-04
6.154854e-04
5.153271e-04
4.237938e-04
3.404362e-04
2.647620e-04
1.962288e-04
1.342386e-04
7.813323e-05
2.719235e-05
-1.936833e-05
-6.239676e-05
-1.028035e-04
-1.415599e-04
-1.796955e-04
-2.182949e-04
-2.584952e-04
-3.014823e-04
-3.484888e-04
-4.007909e-04
-4.597070e-04
-5.265965e-04
-6.028592e-04
-6.899363e-04
-7.893109e-04
-9.025102e-04
-1.031108e-03
-1.176724e-03
1.008722e-03
8.711950e-04
7.446087e-04
6.285492e-04
5.225815e-04
4.262401e-04
3.390194e-04
2.603660e-04
1.896712e-04
1.262662e-04
6.941749e-05
1.832493e-05
-2.787988e-05
-7.013342e-05
-1.094393e-04
-1.468668e-04
-1.835482e-04
-2.206770e-04
-2.595048e-04
-3.013388e-04
-3.475399e-04
-3.995207e-04
-4.587443e-04
-5.267233e-04
-6.050202e-04
-6.952477e-04
-7.990698e-04
-9.182036e-04
-1.054421e-03
-1.209548e-03
1.039733e-03
8.933852e-04
7.591208e-04
6.364926e-04
5.250265e-04
4.242115e-04
3.334908e-04
2.522528e-04
1.798253e-04
1.154694e-04
5.837644e-05
7.665128e-06
-3.761894e-05
-7.850346e-05
-1.160884e-04
-1.515445e-04
-1.861110e-04
-2.210939e-04
-2.578634e-04
-2.978520e-04
-3.425529e-04
-3.935187e-04
-4.523604e-04
-5.207474e-04
-6.004080e-04
-6.931299e-04
-8.007619e-04
-9.252149e-04
-1.068464e-03
-1.232549e-03
1.064171e-03
9.093007e-04
7.676658e-04
6.387921e-04
5.221726e-04
4.172567e-04
3.234401e-04
2.400570e-04
1.663729e-04
1.015799e-04
4.479336e-05
-4.950224e-06
-4.869365e-05
-8.755874e-05
-1.227451e-04
-1.555287e-04
-1.872595e-04
-2.193599e-04
-2.533226e-04
-2.907092e-04
-3.331488e-04
-3.823373e-04
-4.400373e-04
-5.080783e-04
-5.883578e-04
-6.828425e-04
-7.935699e-04
-9.226502e-04
-1.072268e-03
-1.244684e-03
1.081431e-03
9.183573e-04
7.696829e-04
6.349144e-04
5.135186e-04
4.049106e-04
3.084433e-04
2.233989e-04
1.489825e-04
8.431730e-05
2.844172e-05
-1.969189e-05
-6.121737e-05
-9.735383e-05
-1.294042e-04
-1.587532e-04
-1.868654e-04
-2.152836e-04
-2.456266e-04
-2.795886e-04
-3.189380e-04
-3.655176e-04
-4.212448e-04
-4.881125e-04
-5.681912e-04
-6.636301e-04
-7.766604e-04
-9.095970e-04
-1.064841e-03
-1.244883e-03
1.090908e-03
9.199652e-04
7.646024e-04
6.243146e-04
4.985496e-04
3.866938e-04
2.880612e-04
2.018847e-04
1.273098e-04
6.339028e-05
9.086172e-06
-3.673696e-05
-7.530716e-05
-1.079445e-04
-1.360590e-04
-1.611482e-04
-1.847952e-04
-2.086667e-04
-2.345113e-04
-2.641590e-04
-2.995210e-04
-3.425899e-04
-3.954410e-04
-4.602342e-04
-5.392160e-04
-6.347227e-04
-7.491834e-04
-8.851239e-04
-1.045169e-03
-1.232048e-03
1.091992e-03
9.135278e-04
7.518439e-04
6.064344e-04
4.767354e-04
3.621105e-04
2.618387e-04
1.751057e-04
1.009975e-04
3.849716e-05
-1.351623e-05
-5.626720e-05
-9.108193e-05
-1.193857e-04
-1.426997e-04
-1.626388e-04
-1.809083e-04
-1.993024e-04
-2.197030e-04
-2.440792e-04
-2.744874e-04
-3.130732e-04
-3.620726e-04
-4.238152e-04
-5.007273e-04
-5.953359e-04
-7.102731e-04
-8.482809e-04
-1.012216e-03
-1.205054e-03
1.084072e-03
8.984390e-04
7.308138e-04
5.806991e-04
4.475280e-04
3.306471e-04
2.293041e-04
1.426385e-04
6.967611e-05
9.327049e-06
-3.961426e-05
-7.846687e-05
-1.086599e-04
-1.317288e-04
-1.493110e-04
-1.631426e-04
-1.750553e-04
-1.869745e-04
-2.009181e-04
-2.189972e-04
-2.434161e-04
-2.764756e-04
-3.205750e-04
-3.782161e-04
-4.520082e-04
-5.446724e-04
-6.590484e-04
-7.981002e-04
-9.649232e-04
-1.162751e-03
1.066528e-03
8.740808e-04
7.009022e-04
5.465153e-04
4.103593e-04
2.917702e-04
1.899672e-04
1.040441e-04
3.296444e-05
-2.443858e-05
-6.946020e-05
-1.035198e-04
-1.281556e-04
-1.450188e-04
-1.558683e-04
-1.625665e-04
-1.670752e-04
-1.714543e-04
-1.778608e-04
-1.885494e-04
-2.058748e-04
-2.322945e-04
-2.703730e-04
-3.227868e-04
-3.923304e-04
-4.819227e-04
-5.946146e-04
-7.335977e-04
-9.022127e-04
-1.103959e-03
1.038732e-03
8.398202e-04
6.614790e-04
5.032663e-04
3.646375e-04
2.449239e-04
1.433186e-04
5.886828e-05
-9.529245e-06
-6.312359e-05
-1.033067e-04
-1.316057e-04
-1.496752e-04
-1.592892e-04
-1.623341e-04
-1.608032e-04
-1.567926e-04
-1.524995e-04
-1.502218e-04
-1.523599e-04
-1.614196e-04
-1.800165e-04
-2.108817e-04
-2.568677e-04
-3.209563e-04
-4.062668e-04
-5.160652e-04
-6.537749e-04
-8.229882e-04
-1.027479e-03
1.000045e-03
7.950049e-04
6.118896e-04
4.503084e-04
3.097436e-04
1.895275e-04
8.882796e-05
6.641845e-06
-5.820530e-05
-1.070540e-04
-1.414023e-04
-1.628949e-04
-1.733117e-04
-1.745575e-04
-1.686529e-04
-1.577271e-04
-1.440140e-04
-1.298505e-04
-1.176767e-04
-1.100392e-04
-1.095952e-04
-1.191186e-04
-1.415074e-04
-1.797912e-04
-2.371406e-04
-3.168771e-04
-4.224845e-04
-5.576221e-04
-7.261386e-04
-9.320894e-04
9.498139e-04
7.389576e-04
5.514489e-04
3.869650e-04
2.450267e-04
1.249723e-04
2.594352e-05
-5.311855e-05
-1.134699e-04
-1.565536e-04
-1.839862e-04
-1.975420e-04
-1.991377e-04
-1.908181e-04
-1.747449e-04
-1.531885e-04
-1.285236e-04
-1.032280e-04
-7.988409e-05
-6.118390e-05
-4.993511e-05
-4.906912e-05
-6.165006e-05
-9.088467e-05
-1.401330e-04
-2.129205e-04
-3.129508e-04
-4.441215e-04
-6.105421e-04
-8.165540e-04
8.873618e-04
6.709697e-04
4.794337e-04
3.125198e-04
1.697989e-04
5.061859e-05
-4.590910e-05
-1.209085e-04
-1.757306e-04
-2.119372e-04
-2.312796e-04
-2.356773e-04
-2.271969e-04
-2.080339e-04
-1.804989e-04
-1.470081e-04
-1.100789e-04
-7.232984e-05
-3.648417e-05
-5.376791e-06
1.803684e-05
3.067027e-05
2.929472e-05
1.052720e-05
-2.918195e-05
-9.356261e-05
-1.865399e-04
-3.122519e-04
-4.750706e-04
-6.796270e-04
8.119849e-04
5.902917e-04
3.950737e-04
2.262083e-04
8.332837e-05
-3.420809e-05
-1.273269e-04
-1.972326e-04
-2.453907e-04
-2.735028e-04
-2.834765e-04
-2.773956e-04
-2.574927e-04
-2.261261e-04
-1.857630e-04
-1.389692e-04
-8.840519e-05
-3.682808e-05
1.290219e-05
5.781257e-05
9.480464e-05
1.206410e-04
1.319312e-04
1.251177e-04
9.646159e-05
4.202805e-05
-4.233040e-05
-1.609932e-04
-3.185958e-04
-5.200592e-04
7.229410e-04
4.961216e-04
2.975392e-04
1.272078e-04
-1.516729e-05
-1.302203e-04
-2.189288e-04
-2.825995e-04
-3.228397e-04
-3.415193e-04
-3.407294e-04
-3.227421e-04
-2.899748e-04
-2.449616e-04
-1.903342e-04
-1.288100e-04
-6.319057e-05
3.633769e-06
6.867361e-05
1.288257e-04
1.808561e-04
2.213829e-04
2.468581e-04
2.535523e-04
2.375380e-04
1.946748e-04
1.205919e-04
1.066806e-05
-1.399948e-04
-3.366056e-04
6.194359e-04
3.875893e-04
1.859260e-04
1.462407e-05
-1.265303e-04
-2.381720e-04
-3.213529e-04
-3.775142e-04
-4.084415e-04
-4.162110e-04
-4.031320e-04
-3.716940e-04
-3.245212e-04
-2.643379e-04
-1.939459e-04
-1.162144e-04
-3.408029e-05
4.944261e-05
1.312469e-04
2.081112e-04
2.766772e-04
3.334269e-04
3.746613e-04
3.964816e-04
3.947724e-04
3.651864e-04
3.031278e-04
2.037330e-04
6.184297e-05
-1.280337e-04
5.006064e-04
2.637366e-04
5.923613e-05
-1.125241e-04
-2.516722e-04
-3.588614e-04
-4.352524e-04
-4.824659e-04
-5.025168e-04
-4.977363e-04
-4.706961e-04
-4.241381e-04
-3.609180e-04
-2.839643e-04
-1.962537e-04
-1.008024e-04
-6.715918e-07
1.010165e-04
2.010539e-04
2.961185e-04
3.827428e-04
4.572849e-04
5.159024e-04
5.545306e-04
5.688655e-04
5.543496e-04
5.061587e-04
4.191846e-04
2.880099e-04
1.068683e-04
3.654957e-04
1.234907e-04
-8.364723e-05
-2.553243e-04
-3.915853e-04
-4.931325e-04
-5.612865e-04
-5.979118e-04
-6.053194e-04
-5.861601e-04
-5.433219e-04
-4.798411e-04
-3.988323e-04
-3.034411e-04
-1.968191e-04
-8.211942e-05
3.749062e-05
1.588033e-04
2.785352e-04
3.932873e-04
4.995041e-04
5.934356e-04
6.711055e-04
7.282864e-04
7.604827e-04
7.629207e-04
7.305399e-04
6.579829e-04
5.395746e-04
3.692842e-04
2.130218e-04
-3.437031e-05
-2.439911e-04
-4.149943e-04
-5.473550e-04
-6.418740e-04
-7.001072e-04
-7.242514e-04
-7.170038e-04
-6.814163e-04
-6.207605e-04
-5.384150e-04
-4.377818e-04
-3.222339e-04
-1.950917e-04
-5.962625e-05
8.091664e-05
2.232769e-04
3.641302e-04
5.000334e-04
6.273707e-04
7.423049e-04
8.407373e-04
9.182800e-04
9.702401e-04
9.916151e-04
9.770945e-04
9.210606e-04
8.175785e-04
6.603641e-04
4.193542e-05
-2.112632e-04
-4.232536e-04
-5.929109e-04
-7.201720e-04
-8.060143e-04
-8.523376e-04
-8.617924e-04
-8.375811e-04
-7.832604e-04
-7.025658e-04
-5.992725e-04
-4.770978e-04
-3.396458e-04
-1.903902e-04
-3.268963e-05
1.301723e-04
2.949291e-04
4.582620e-04
6.167276e-04
7.666864e-04
9.042402e-04
1.025182e-03
1.124965e-03
1.198687e-03
1.241095e-03
1.246607e-03
1.209321e-03
1.123035e-03
9.812213e-04
-1.492381e-04
-4.088593e-04
-6.231354e-04
-7.906446e-04
-9.113449e-04
-9.865096e-04
-1.018538e-03
-1.010700e-03
-9.668595e-04
-8.912063e-04
-7.880351e-04
-6.615753e-04
-5.158827e-04
-3.547862e-04
-1.818836e-04
-5.746151e-07
1.858760e-04
3.742568e-04
5.613167e-04
7.436685e-04
9.176966e-04
1.079476e-03
1.224709e-03
1.348687e-03
1.446281e-03
1.511958e-03
1.539816e-03
1.523641e-03
1.456936e-03
1.332935e-03
-3.622755e-04
-6.291647e-04
-8.456468e-04
-1.010001e-03
-1.122309e-03
-1.184320e-03
-1.199155e-03
-1.170928e-03
-1.104365e-03
-1.004448e-03
-8.761367e-04
-7.241728e-04
-5.529632e-04
-3.665391e-04
-1.685733e-04
3.755948e-05
2.486900e-04
4.617430e-04
6.736142e-04
8.810455e-04
1.080506e-03
1.268088e-03
1.439426e-03
1.589647e-03
1.713365e-03
1.804713e-03
1.857415e-03
1.864874e-03
1.820261e-03
1.716564e-03
-5.993601e-04
-8.746259e-04
-1.093193e-03
-1.253069e-03
-1.354628e-03
-1.400369e-03
-1.394444e-03
-1.342119e-03
-1.249236e-03
-1.121757e-03
-9.654224e-04
-7.855331e-04
-5.868406e-04
-3.735317e-04
-1.492795e-04
8.265761e-05
3.193064e-04
5.578303e-04
7.953717e-04
1.028894e-03
1.255028e-03
1.469941e-03
1.669228e-03
1.847849e-03
2.000120e-03
2.119768e-03
2.200042e-03
2.233866e-03
2.214002e-03
2.133165e-03
-8.632264e-04
-1.148274e-03
-1.368685e-03
-1.522271e-03
-1.609982e-03
-1.635468e-03
-1.604357e-03
-1.523471e-03
-1.400088e-03
-1.241363e-03
-1.053928e-03
-8.436692e-04
-6.156430e-04
-3.741099e-04
-1.226355e-04
1.357595e-04
3.984242e-04
6.628868e-04
9.266588e-04
1.187038e-03
1.440916e-03
1.684612e-03
1.913722e-03
2.123037e-03
2.306522e-03
2.457393e-03
2.568281e-03
2.631478e-03
2.639205e-03
2.583842e-03
-1.157359e-03
-1.453920e-03
-1.675679e-03
-1.820422e-03
-1.890125e-03
-1.890198e-03
-1.828371e-03
-1.713549e-03
-1.554836e-03
-1.360804e-03
-1.139065e-03
-8.960674e-04
-6.370862e-04
-3.663249e-04
-8.709368e-05
1.979789e-04
4.867174e-04
7.771647e-04
1.067346e-03
1.355029e-03
1.637494e-03
1.911307e-03
2.172134e-03
2.414603e-03
2.632264e-03
2.817681e-03
2.962659e-03
3.058619e-03
3.097028e-03
3.069809e-03
-1.486273e-03
-1.796421e-03
-2.018556e-03
-2.150766e-03
-2.196792e-03
-2.164714e-03
-2.065235e-03
-1.910034e-03
-1.710476e-03
-1.476763e-03
-1.217508e-03
-9.396289e-04
-6.484545e-04
-3.479419e-04
-4.095095e-05
2.704688e-04
5.847947e-04
9.007533e-04
1.217047e-03
1.532078e-03
1.843665e-03
2.148762e-03
2.443200e-03
2.721476e-03
2.976662e-03
3.200486e-03
3.383636e-03
3.516297e-03
3.588838e-03
3.592502e-03
-1.855921e-03
-2.182061e-03
-2.402744e-03
-2.516994e-03
-2.531511e-03
-2.458423e-03
-2.312614e-03
-2.109388e-03
-1.862829e-03
-1.584895e-03
-1.285109e-03
-9.706440e-04
-6.466192e-04
-3.164820e-04
1.759928e-05
3.543691e-04
6.931499e-04
1.033532e-03
1.375074e-03
1.716991e-03
2.057833e-03
2.395126e-03
2.725018e-03
3.041962e-03
3.338506e-03
3.605326e-03
3.831585e-03
4.005687e-03
4.116351e-03
4.153744e-03
-2.274291e-03
-2.619077e-03
-2.834988e-03
-2.923163e-03
-2.895241e-03
-2.769476e-03
-2.566568e-03
-2.306430e-03
-2.006246e-03
-1.679675e-03
-1.336857e-03
-9.848284e-04
-6.281146e-04
-2.693130e-04
9.038118e-05
4.507350e-04
8.121084e-04
1.175131e-03
1.540394e-03
1.908126e-03
2.277827e-03
2.647845e-03
3.014888e-03
3.373537e-03
3.715847e-03
4.031214e-03
4.306735e-03
4.528222e-03
4.681838e-03
4.755997e-03
-2.752315e-03
-3.118438e-03
-3.323650e-03
-3.373446e-03
-3.287720e-03
-3.093969e-03
-2.820834e-03
-2.493829e-03
-2.133342e-03
-1.754329e-03
-1.366937e-03
-9.774584e-04
-5.893000e-04
-2.038033e-04
1.791094e-04
5.604466e-04
9.417740e-04
1.324908e-03
1.711633e-03
2.103383e-03
2.500868e-03
2.903570e-03
3.309125e-03
3.712582e-03
4.105682e-03
4.476382e-03
4.809046e-03
5.085685e-03
5.288435e-03
5.402757e-03
-3.305296e-03
-3.694931e-03
-3.878930e-03
-3.871450e-03
-3.706279e-03
-3.424726e-03
-3.065905e-03
-2.661580e-03
-2.234830e-03
-1.800918e-03
-1.368964e-03
-9.436529e-04
-5.266326e-04
-1.175521e-04
2.852188e-04
6.841033e-04
1.081986e-03
1.481963e-03
1.887123e-03
2.300277e-03
2.723604e-03
3.158118e-03
3.602896e-03
4.054047e-03
4.503486e-03
4.937810e-03
5.337919e-03
5.680297e-03
5.940607e-03
6.099176e-03
-3.955307e-03
-4.368954e-03
-4.512929e-03
-4.418781e-03
-4.143774e-03
-3.749514e-03
-3.287937e-03
-2.796613e-03
-2.299638e-03
-1.810731e-03
-1.336468e-03
-8.788455e-04
-4.370680e-04
-8.695580e-06
4.096567e-04
8.219111e-04
1.232294e-03
1.645191e-03
2.065027e-03
2.496097e-03
2.942286e-03
3.406563e-03
3.890133e-03
4.391094e-03
4.902548e-03
5.410378e-03
5.891551e-03
6.314668e-03
6.644813e-03
6.853070e-03
-4.735159e-03
-5.168311e-03
-5.238399e-03
-5.011690e-03
-4.585226e-03
-4.048745e-03
-3.467807e-03
-2.882896e-03
-2.315569e-03
-1.775136e-03
-1.263709e-03
-7.794656e-04
-3.185790e-04
1.237298e-04
5.526570e-04
9.735770e-04
1.391965e-03
1.813394e-03
2.243552e-03
2.688216e-03
3.153116e-03
3.643569e-03
4.163680e-03
4.714834e-03
5.293127e-03
5.885563e-03
6.465694e-03
6.991512e-03
7.410662e-03
7.676746e-03
-5.696600e-03
-6.133782e-03
-6.066039e-03
-5.634635e-03
-5.002118e-03
-4.292943e-03
-3.581048e-03
-2.902619e-03
-2.270868e-03
-1.687036e-03
-1.146844e-03
-6.437909e-04
-1.707387e-04
2.794155e-04
7.135304e-04
1.138229e-03
1.560016e-03
1.985434e-03
2.421234e-03
2.874527e-03
3.352856e-03
3.864087e-03
4.415904e-03
5.014488e-03
5.661621e-03
6.349171e-03
7.050535e-03
7.711740e-03
8.252003e-03
8.590092e-03
-6.922816e-03
-7.312335e-03
-6.991869e-03
-6.248441e-03
-5.346817e-03
-4.441884e-03
-3.600116e-03
-2.839329e-03
-2.156976e-03
-1.542927e-03
-9.853209e-04
-4.728327e-04
4.747732e-06
4.564835e-04
8.905220e-04
1.314385e-03
1.735279e-03
2.160400e-03
2.597255e-03
3.053975e-03
3.539631e-03
4.064500e-03
4.640085e-03
5.278566e-03
5.990473e-03
6.778949e-03
7.626429e-03
8.471490e-03
9.190183e-03
9.628171e-03
-8.573768e-03
-8.787453e-03
-7.966901e-03
-6.763854e-03
-5.546077e-03
-4.450033e-03
-3.501170e-03
-2.683528e-03
-1.972322e-03
-1.345183e-03
-7.831532e-04
-2.709903e-04
2.037416e-04
6.513737e-04
1.080794e-03
1.499983e-03
1.916468e-03
2.337745e-03
2.771692e-03
3.227022e-03
3.713813e-03
4.244139e-03
4.832789e-03
5.497943e-03
6.260832e-03
7.143146e-03
8.151525e-03
9.241965e-03
1.024794e-02
1.085497e-02
-1.090171e-02
-1.050982e-02
-8.865278e-03
-7.042134e-03
-5.513153e-03
-4.283455e-03
-3.276960e-03
-2.439991e-03
-1.726067e-03
-1.103717e-03
-5.495115e-04
-4.614177e-05
4.197836e-04
8.590100e-04
1.280576e-03
1.692484e-03
2.102236e-03
2.517297e-03
2.945552e-03
3.395832e-03
3.878556e-03
4.406629e-03
4.996719e-03
5.671137e-03
6.460419e-03
7.406661e-03
8.558744e-03
9.959558e-03
1.145618e-02
1.240767e-02
-1.478261e-02
-1.229490e-02
-9.172965e-03
-6.907934e-03
-5.207458e-03
-3.950012e-03
-2.951229e-03
-2.133008e-03
-1.439313e-03
-8.356618e-04
-2.979321e-04
1.911797e-04
6.447929e-04
1.073332e-03
1.485519e-03
1.889068e-03
2.291212e-03
2.699160e-03
3.120550e-03
3.563964e-03
4.039596e-03
4.560202e-03
5.142596e-03
5.810078e-03
6.597010e-03
7.556769e-03
8.778516e-03
1.041435e-02
1.253391e-02
1.470886e-02
-1.967947e-02
-1.356353e-02
-8.604200e-03
-6.349216e-03
-4.717810e-03
-3.526085e-03
-2.581594e-03
-1.803905e-03
-1.141615e-03
-5.624029e-04
-4.407594e-05
4.293856e-04
8.701654e-04
1.288005e-03
1.691110e-03
2.086781e-03
2.481898e-03
2.883342e-03
3.298410e-03
3.735289e-03
4.203672e-03
4.715632e-03
5.287003e-03
5.939664e-03
6.706046e-03
7.636850e-03
8.827433e-03
1.045609e-02
1.316802e-02
1.849915e-02
SCALARS SRZ double 1
LOOKUP_TABLE srz
1.250688e-06
4.998682e-07
-2.471704e-06
-5.972280e-06
-9.426717e-06
-1.260384e-05
-1.542962e-05
-1.788903e-05
-1.999317e-05
-2.176288e-05
-2.322135e-05
-2.439038e-05
-2.528835e-05
-2.592911e-05
-2.632124e-05
-2.646754e-05
-2.636457e-05
-2.600227e-05
-2.536361e-05
-2.442435e-05
-2.315298e-05
-2.151125e-05
-1.945572e-05
-1.694178e-05
-1.393295e-05
-1.042229e-05
-6.484087e-06
-2.400984e-06
9.909633e-07
1.371699e-06
8.196540e-07
-3.212496e-06
-1.227466e-05
-2.328230e-05
-3.454197e-05
-4.521386e-05
-5.492206e-05
-6.352092e-05
-7.098093e-05
-7.732783e-05
-8.261067e-05
-8.688407e-05
-9.019809e-05
-9.259214e-05
-9.409114e-05
-9.470291e-05
-9.441632e-05
-9.319999e-05
-9.100153e-05
-8.774762e-05
-8.334540e-05
-7.768655e-05
-7.065617e-05
-6.215104e-05
-5.211627e-05
-4.061861e-05
-2.799221e-05
-1.513492e-05
-4.038803e-06
1.345778e-06
-2.879587e-06
-1.250312e-05
-2.669276e-05
-4.295635e-05
-5.960751e-05
-7.561985e-05
-9.041636e-05
-1.037092e-04
-1.153818e-04
-1.254142e-04
-1.338357e-04
-1.406966e-04
-1.460499e-04
-1.499395e-04
-1.523932e-04
-1.534172e-04
-1.529928e-04
-1.510750e-04
-1.475913e-04
-1.424436e-04
-1.355127e-04
-1.266668e-04
-1.157795e-04
-1.027600e-04
-8.760822e-05
-7.050734e-05
-5.197640e-05
-3.309750e-05
-1.580487e-05
-3.152121e-06
-7.502591e-06
-2.399348e-05
-4.320350e-05
-6.375322e-05
-8.442137e-05
-1.043052e-04
-1.228072e-04
-1.395748e-04
-1.544271e-04
-1.672937e-04
-1.781697e-04
-1.870834e-04
-1.940748e-04
-1.991800e-04
-2.024208e-04
-2.037979e-04
-2.032865e-04
-2.008337e-04
-1.963587e-04
-1.897559e-04
-1.809017e-04
-1.696671e-04
-1.559401e-04
-1.396605e-04
-1.208741e-04
-9.981126e-05
-7.698876e-05
-5.331049e-05
-3.011059e-05
-8.975201e-06
-1.211881e-05
-3.580478e-05
-6.005324e-05
-8.446846e-05
-1.083951e-04
-1.312098e-04
-1.524286e-04
-1.717227e-04
-1.888963e-04
-2.038518e-04
-2.165573e-04
-2.270190e-04
-2.352597e-04
-2.413029e-04
-2.451617e-04
-2.468302e-04
-2.462785e-04
-2.434508e-04
-2.382649e-04
-2.306168e-04
-2.203882e-04
-2.074607e-04
-1.917368e-04
-1.731707e-04
-1.518094e-04
-1.278387e-04
-1.016233e-04
-7.370209e-05
-4.466933e-05
-1.480726e-05
-1.636538e-05
-4.696237e-05
-7.613611e-05
-1.041678e-04
-1.309072e-04
-1.560536e-04
-1.793048e-04
-2.004208e-04
-2.192392e-04
-2.356674e-04
-2.496655e-04
-2.612270e-04
-2.703628e-04
-2.770860e-04
-2.814017e-04
-2.832987e-04
-2.827443e-04
-2.796819e-04
-2.740312e-04
-2.656922e-04
-2.545522e-04
-2.404981e-04
-2.234330e-04
-2.032967e-04
-1.800876e-04
-1.538767e-04
-1.247949e-04
-9.296225e-05
-5.830071e-05
-2.015916e-05
-2.011103e-05
-5.701137e-05
-9.080968e-05
-1.222081e-04
-1.514450e-04
-1.785162e-04
-2.033204e-04
-2.257412e-04
-2.456854e-04
-2.630940e-04
-2.779403e-04
-2.902204e-04
-2.999422e-04
-3.071149e-04
-3.117399e-04
-3.138032e-04
-3.132713e-04
-3.100881e-04
-3.041752e-04
-2.954344e-04
-2.837533e-04
-2.690131e-04
-2.510986e-04
-2.299069e-04
-2.053508e-04
-1.773462e-04
-1.457667e-04
-1.103406e-04
-7.045673e-05
-2.485003e-05
-2.332087e-05
-6.576123e-05
-1.037365e-04
-1.381917e-04
-1.696395e-04
-1.983192e-04
-2.243189e-04
-2.476567e-04
-2.683277e-04
-2.863278e-04
-3.016621e-04
-3.143436e-04
-3.243888e-04
-3.318106e-04
-3.366121e-04
-3.387807e-04
-3.382836e-04
-3.350658e-04
-3.290490e-04
-3.201326e-04
-3.081966e-04
-2.931044e-04
-2.747056e-04
-2.528337e-04
-2.272948e-04
-1.978370e-04
-1.640888e-04
-1.254492e-04
-8.091414e-05
-2.883376e-05
-2.600113e-05
-7.315695e-05
-1.147648e-04
-1.518980e-04
-1.852524e-04
-2.152540e-04
-2.421542e-04
-2.660999e-04
-2.871818e-04
-3.054625e-04
-3.209920e-04
-3.338126e-04
-3.439596e-04
-3.514577e-04
-3.563176e-04
-3.585316e-04
-3.580700e-04
-3.548785e-04
-3.488765e-04
-3.399567e-04
-3.279836e-04
-3.127930e-04
-2.941870e-04
-2.719237e-04
-2.456953e-04
-2.150884e-04
-1.795168e-04
-1.381191e-04
-8.961381e-05
-3.211881e-05
-2.817472e-05
-7.921015e-05
-1.238496e-04
-1.632248e-04
-1.981476e-04
-2.291814e-04
-2.567103e-04
-2.809967e-04
-3.022244e-04
-3.205274e-04
-3.360086e-04
-3.487483e-04
-3.588085e-04
-3.662329e-04
-3.710451e-04
-3.732460e-04
-3.728104e-04
-3.696849e-04
-3.637848e-04
-3.549916e-04
-3.431492e-04
-3.280585e-04
-3.094677e-04
-2.870555e-04
-2.604037e-04
-2.289536e-04
-1.919408e-04
-1.483053e-04
-9.657579e-05
-3.473547e-05
-2.987000e-05
-8.396333e-05
-1.310051e-04
-1.721437e-04
-2.082614e-04
-2.400190e-04
-2.679052e-04
-2.922809e-04
-3.134156e-04
-3.315144e-04
-3.467358e-04
-3.592036e-04
-3.690124e-04
-3.762301e-04
-3.808975e-04
-3.830272e-04
-3.826004e-04
-3.795647e-04
-3.738299e-04
-3.652639e-04
-3.536865e-04
-3.388604e-04
-3.204781e-04
-2.981414e-04
-2.713311e-04
-2.393637e-04
-2.013320e-04
-1.560287e-04
-1.018548e-04
-3.672039e-05
-3.111565e-05
-8.747080e-05
-1.362748e-04
-1.786699e-04
-2.155778e-04
-2.477270e-04
-2.756866e-04
-2.998996e-04
-3.207116e-04
-3.383943e-04
-3.531623e-04
-3.651848e-04
-3.745926e-04
-3.814814e-04
-3.859128e-04
-3.879133e-04
-3.874724e-04
-3.845391e-04
-3.790173e-04
-3.707604e-04
-3.595629e-04
-3.451494e-04
-3.271585e-04
-3.051214e-04
-2.784304e-04
-2.462985e-04
-2.077068e-04
-1.613405e-04
-1.055166e-04
-3.810961e-05
-3.193820e-05
-8.978884e-05
-1.397154e-04
-1.828418e-04
-2.201097e-04
-2.522941e-04
-2.800253e-04
-3.038133e-04
-3.240698e-04
-3.411275e-04
-3.552548e-04
-3.666665e-04
-3.755311e-04
-3.819745e-04
-3.860812e-04
-3.878940e-04
-3.874120e-04
-3.845865e-04
-3.793165e-04
-3.714409e-04
-3.607300e-04
-3.468722e-04
-3.294575e-04
-3.079543e-04
-2.816803e-04
-2.497647e-04
-2.111027e-04
-1.643023e-04
-1.076262e-04
-3.893536e-05
-3.236114e-05
-9.097058e-05
-1.413857e-04
-1.847076e-04
-2.218859e-04
-2.537269e-04
-2.809078e-04
-3.039931e-04
-3.234511e-04
-3.396694e-04
-3.529667e-04
-3.636025e-04
-3.717831e-04
-3.776656e-04
-3.813591e-04
-3.829243e-04
-3.823714e-04
-3.796556e-04
-3.746717e-04
-3.672465e-04
-3.571283e-04
-3.439733e-04
-3.273286e-04
-3.066097e-04
-2.810726e-04
-2.497804e-04
-2.115632e-04
-1.649738e-04
-1.082412e-04
-3.922483e-05
-3.240462e-05
-9.106358e-05
-1.413423e-04
-1.843179e-04
-2.209417e-04
-2.520415e-04
-2.783303e-04
-3.004171e-04
-3.188192e-04
-3.339729e-04
-3.462436e-04
-3.559333e-04
-3.632856e-04
-3.684892e-04
-3.716790e-04
-3.729348e-04
-3.722792e-04
-3.696732e-04
-3.650098e-04
-3.581056e-04
-3.486907e-04
-3.363940e-04
-3.207268e-04
-3.010609e-04
-2.766032e-04
-2.463651e-04
-2.091282e-04
-1.634069e-04
-1.074092e-04
-3.899980e-05
-3.208557e-05
-9.010902e-05
-1.396357e-04
-1.817207e-04
-2.173135e-04
-2.472572e-04
-2.722933e-04
-2.930678e-04
-3.101400e-04
-3.239900e-04
-3.350261e-04
-3.435907e-04
-3.499637e-04
-3.543655e-04
-3.569572e-04
-3.578389e-04
-3.570476e-04
-3.545516e-04
-3.502447e-04
-3.439367e-04
-3.353434e-04
-3.240721e-04
-3.096052e-04
-2.912800e-04
-2.682650e-04
-2.395326e-04
-2.038291e-04
-1.596418e-04
-1.051669e-04
-3.827679e-05
-3.141795e-05
-8.814154e-05
-1.363096e-04
-1.769584e-04
-2.110345e-04
-2.393931e-04
-2.627985e-04
-2.819287e-04
-2.973797e-04
-3.096712e-04
-3.192514e-04
-3.265006e-04
-3.317344e-04
-3.352045e-04
-3.370986e-04
-3.375386e-04
-3.365770e-04
-3.341922e-04
-3.302810e-04
-3.246505e-04
-3.170064e-04
-3.069400e-04
-2.939120e-04
-2.772336e-04
-2.560443e-04
-2.292879e-04
-1.956854e-04
-1.537062e-04
-1.015400e-04
-3.706748e-05
-3.041307e-05
-8.518962e-05
-1.314006e-04
-1.700670e-04
-2.021334e-04
-2.284647e-04
-2.498458e-04
-2.669823e-04
-2.805036e-04
-2.909657e-04
-2.988538e-04
-3.045850e-04
-3.085091e-04
-3.109093e-04
-3.120004e-04
-3.119272e-04
-3.107596e-04
-3.084881e-04
-3.050161e-04
-3.001510e-04
-2.935935e-04
-2.849244e-04
-2.735894e-04
-2.588808e-04
-2.399180e-04
-2.156245e-04
-1.847040e-04
-1.456149e-04
-9.654361e-05
-3.537909e-05
-2.907996e-05
-8.127614e-05
-1.249382e-04
-1.610755e-04
-1.906323e-04
-2.144832e-04
-2.334315e-04
-2.482086e-04
-2.594748e-04
-2.678200e-04
-2.737650e-04
-2.777620e-04
-2.801948e-04
-2.813779e-04
-2.815541e-04
-2.808919e-04
-2.794811e-04
-2.773264e-04
-2.743407e-04
-2.703358e-04
-2.650120e-04
-2.579450e-04
-2.485712e-04
-2.361716e-04
-2.198522e-04
-1.985236e-04
-1.708790e-04
-1.353702e-04
-9.018354e-05
-3.321491e-05
-2.742569e-05
-7.641902e-05
-1.169451e-04
-1.500058e-04
-1.765469e-04
-1.974535e-04
-2.135470e-04
-2.255836e-04
-2.342530e-04
-2.401778e-04
-2.439133e-04
-2.459464e-04
-2.466946e-04
-2.465039e-04
-2.456461e-04
-2.443152e-04
-2.426220e-04
-2.405885e-04
-2.381401e-04
-2.350970e-04
-2.311631e-04
-2.259141e-04
-2.187834e-04
-2.090463e-04
-1.958020e-04
-1.779545e-04
-1.541917e-04
-1.229631e-04
-8.245671e-05
-3.057472e-05
-2.545566e-05
-7.063182e-05
-1.074383e-04
-1.368732e-04
-1.598863e-04
-1.773746e-04
-1.901783e-04
-1.990781e-04
-2.047931e-04
-2.079783e-04
-2.092231e-04
-2.090490e-04
-2.079075e-04
-2.061769e-04
-2.041591e-04
-2.020747e-04
-2.000581e-04
-1.981510e-04
-1.962945e-04
-1.943205e-04
-1.919410e-04
-1.887368e-04
-1.841432e-04
-1.774354e-04
-1.677117e-04
-1.538747e-04
-1.346119e-04
-1.083740e-04
-7.335240e-05
-2.745527e-05
-2.317390e-05
-6.392440e-05
-9.642939e-05
-1.216866e-04
-1.406528e-04
-1.542387e-04
-1.633048e-04
-1.686574e-04
-1.710452e-04
-1.711562e-04
-1.696143e-04
-1.669763e-04
-1.637283e-04
-1.602822e-04
-1.569709e-04
-1.540439e-04
-1.516609e-04
-1.498859e-04
-1.486788e-04
-1.478867e-04
-1.472341e-04
-1.463109e-04
-1.445595e-04
-1.412602e-04
-1.355152e-04
-1.262310e-04
-1.120988e-04
-9.157392e-05
-6.285316e-05
-2.385068e-05
-2.058331e-05
-5.630341e-05
-8.392503e-05
-1.044491e-04
-1.188423e-04
-1.280315e-04
-1.328996e-04
-1.342801e-04
-1.329529e-04
-1.296401e-04
-1.250013e-04
-1.196296e-04
-1.140472e-04
-1.087005e-04
-1.039554e-04
-1.000919e-04
-9.729741e-05
-9.566060e-05
-9.516314e-05
-9.567104e-05
-9.692471e-05
-9.852760e-05
-9.993369e-05
-1.004333e-04
-9.913745e-05
-9.496081e-05
-8.660259e-05
-7.252603e-05
-5.093572e-05
-1.975279e-05
-1.768582e-05
-4.777272e-05
-6.992771e-05
-8.515829e-05
-9.444408e-05
-9.873151e-05
-9.892823e-05
-9.589752e-05
-9.045272e-05
-8.335179e-05
-7.529190e-05
-6.690416e-05
-5.874827e-05
-5.130716e-05
-4.498140e-05
-4.008324e-05
-3.683021e-05
-3.533815e-05
-3.561335e-05
-3.754387e-05
-4.088976e-05
-4.527209e-05
-5.016064e-05
-5.486019e-05
-5.849526e-05
-5.999317e-05
-5.806534e-05
-5.118653e-05
-3.757194e-05
-1.515158e-05
-1.448256e-05
-3.833379e-05
-5.443591e-05
-6.380635e-05
-6.744135e-05
-6.631016e-05
-6.134874e-05
-5.345322e-05
-4.347323e-05
-3.220532e-05
-2.038656e-05
-8.688205e-06
2.290424e-06
1.202804e-05
2.008751e-05
2.612213e-05
2.988224e-05
3.122233e-05
3.010876e-05
2.662836e-05
2.099799e-05
1.357520e-05
4.870283e-06
-4.440369e-06
-1.349920e-05
-2.125077e-05
-2.642297e-05
-2.750619e-05
-2.272975e-05
-1.003546e-05
-1.097400e-05
-2.798586e-05
-3.744432e-05
-4.038025e-05
-3.781045e-05
-3.073109e-05
-2.011051e-05
-6.881574e-06
8.066189e-06
2.389431e-05
3.982290e-05
5.513794e-05
6.919817e-05
8.144183e-05
9.139317e-05
9.866903e-05
1.029855e-04
1.041652e-04
1.021445e-04
9.698220e-05
8.886891e-05
7.813719e-05
6.527340e-05
5.093087e-05
3.594473e-05
2.134856e-05
8.393287e-06
-1.431635e-06
-6.374059e-06
-4.391665e-06
-7.159953e-06
-1.672610e-05
-1.894383e-05
-1.486141e-05
-5.520635e-06
8.050575e-06
2.484663e-05
4.389325e-05
6.425662e-05
8.505241e-05
1.054545e-04
1.247030e-04
1.421123e-04
1.570778e-04
1.690831e-04
1.777068e-04
1.826287e-04
1.836374e-04
1.806370e-04
1.736558e-04
1.628549e-04
1.485384e-04
1.311649e-04
1.113604e-04
8.993309e-05
6.788978e-05
4.645512e-05
2.709316e-05
1.153222e-05
1.793398e-06
-3.039665e-06
-4.549487e-06
1.078693e-06
1.277483e-05
2.946684e-05
5.008938e-05
7.359382e-05
9.895887e-05
1.252013e-04
1.513863e-04
1.766375e-04
2.001460e-04
2.211789e-04
2.390867e-04
2.533105e-04
2.633888e-04
2.689636e-04
2.697874e-04
2.657303e-04
2.567872e-04
2.430872e-04
2.249026e-04
2.026603e-04
1.769549e-04
1.485627e-04
1.184585e-04
8.783516e-05
5.812535e-05
3.102714e-05
8.533779e-06
1.388284e-06
8.551339e-06
2.264097e-05
4.256007e-05
6.720000e-05
9.545117e-05
1.262151e-04
1.584167e-04
1.910175e-04
2.230269e-04
2.535139e-04
2.816171e-04
3.065536e-04
3.276269e-04
3.442340e-04
3.558717e-04
3.621431e-04
3.627634e-04
3.575663e-04
3.465119e-04
3.296941e-04
3.073504e-04
2.798723e-04
2.478183e-04
2.119279e-04
1.731385e-04
1.326049e-04
9.172146e-05
5.214862e-05
1.584357e-05
6.126059e-06
2.258655e-05
4.576614e-05
7.453423e-05
1.077380e-04
1.442154e-04
1.828097e-04
2.223847e-04
2.618392e-04
3.001213e-04
3.362406e-04
3.692794e-04
3.984024e-04
4.228643e-04
4.420168e-04
4.553144e-04
4.623201e-04
4.627109e-04
4.562833e-04
4.429600e-04
4.227978e-04
3.959960e-04
3.629069e-04
3.240483e-04
2.801178e-04
2.320093e-04
1.808324e-04
1.279357e-04
7.493319e-05
2.373647e-05
1.117677e-05
3.756982e-05
7.048410e-05
1.087475e-04
1.511535e-04
1.964778e-04
2.434956e-04
2.910002e-04
3.378200e-04
3.828351e-04
4.249908e-04
4.633097e-04
4.969018e-04
5.249719e-04
5.468257e-04
5.618755e-04
5.696442e-04
5.697701e-04
5.620115e-04
5.462527e-04
5.225106e-04
4.909434e-04
4.518603e-04
4.057336e-04
3.532132e-04
2.951428e-04
2.325796e-04
1.668176e-04
9.941473e-05
3.222531e-05
1.654479e-05
5.351928e-05
9.683326e-05
1.452628e-04
1.975363e-04
2.523546e-04
3.084132e-04
3.644242e-04
4.191368e-04
4.713556e-04
5.199568e-04
5.639001e-04
6.022393e-04
6.341288e-04
6.588293e-04
6.757114e-04
6.842588e-04
6.840717e-04
6.748697e-04
6.564976e-04
6.289306e-04
5.922823e-04
5.468146e-04
4.929495e-04
4.312827e-04
3.626008e-04
2.879002e-04
2.084107e-04
1.256230e-04
4.132153e-05
2.223612e-05
7.045898e-05
1.248631e-04
1.841599e-04
2.469975e-04
3.119874e-04
3.777310e-04
4.428467e-04
5.059942e-04
5.658954e-04
6.213521e-04
6.712589e-04
7.146128e-04
7.505191e-04
7.781951e-04
7.969720e-04
8.062966e-04
8.057318e-04
7.949596e-04
7.737839e-04
7.421363e-04
7.000827e-04
6.478333e-04
5.857538e-04
5.143792e-04
4.344310e-04
3.468360e-04
2.527493e-04
1.535822e-04
5.103464e-05
2.825906e-05
8.842079e-05
1.546376e-04
2.255392e-04
2.996754e-04
3.755494e-04
4.516517e-04
5.264923e-04
5.986300e-04
6.666962e-04
7.294141e-04
7.856116e-04
8.342303e-04
8.743290e-04
9.050856e-04
9.257961e-04
9.358732e-04
9.348458e-04
9.223588e-04
8.981752e-04
8.621806e-04
8.143898e-04
7.549560e-04
6.841823e-04
6.025358e-04
5.106643e-04
4.094149e-04
2.998571e-04
1.833094e-04
6.137163e-05
3.462497e-05
1.074470e-04
1.862395e-04
2.695288e-04
3.557428e-04
4.432539e-04
5.304208e-04
6.156282e-04
6.973216e-04
7.740340e-04
8.444065e-04
9.072013e-04
9.613075e-04
1.005743e-03
1.039653e-03
1.062304e-03
1.073080e-03
1.071480e-03
1.057113e-03
1.029702e-03
9.890834e-04
9.352168e-04
8.681925e-04
7.882440e-04
6.957618e-04
5.913107e-04
4.756477e-04
3.497447e-04
2.148133e-04
7.233646e-05
4.134938e-05
1.275937e-04
2.197764e-04
3.162920e-04
4.154171e-04
5.153646e-04
6.143367e-04
7.105736e-04
8.023934e-04
8.882238e-04
9.666223e-04
1.036288e-03
1.096065e-03
1.144939e-03
1.182032e-03
1.206589e-03
1.217975e-03
1.215661e-03
1.199227e-03
1.168352e-03
1.122823e-03
1.062538e-03
9.875171e-04
8.979160e-04
7.940389e-04
6.763569e-04
5.455260e-04
4.024077e-04
2.480927e-04
8.392948e-05
4.845346e-05
1.489355e-04
2.553883e-04
3.660380e-04
4.789721e-04
5.922087e-04
7.037639e-04
8.117105e-04
9.142257e-04
1.009625e-03
1.096385e-03
1.173148e-03
1.238724e-03
1.292080e-03
1.332327e-03
1.358705e-03
1.370566e-03
1.367365e-03
1.348650e-03
1.314059e-03
1.263326e-03
1.196279e-03
1.112862e-03
1.013139e-03
8.973173e-04
7.657635e-04
6.190199e-04
4.578255e-04
2.831357e-04
9.614705e-05
5.596597e-05
1.715716e-04
2.932582e-04
4.190356e-04
5.467541e-04
6.741935e-04
7.991480e-04
9.194977e-04
1.033265e-03
1.138649e-03
1.234050e-03
1.318068e-03
1.389496e-03
1.447301e-03
1.490604e-03
1.518652e-03
1.530801e-03
1.526496e-03
1.505261e-03
1.466690e-03
1.410456e-03
1.336312e-03
1.244109e-03
1.133811e-03
1.005513e-03
8.594632e-04
6.960777e-04
5.159606e-04
3.199188e-04
1.089813e-04
6.392587e-05
1.956339e-04
3.336250e-04
4.756307e-04
6.192025e-04
7.618278e-04
9.010360e-04
1.034487e-03
1.160033e-03
1.275761e-03
1.380005e-03
1.471343e-03
1.548575e-03
1.610698e-03
1.656864e-03
1.686354e-03
1.698542e-03
1.692874e-03
1.668852e-03
1.626027e-03
1.564001e-03
1.482440e-03
1.381087e-03
1.259787e-03
1.118507e-03
9.573612e-04
7.766265e-04
5.767597e-04
3.584083e-04
1.224200e-04
7.238582e-05
2.212974e-04
3.768015e-04
5.362696e-04
6.968758e-04
8.557476e-04
1.010100e-03
1.157340e-03
1.295143e-03
1.421487e-03
1.534664e-03
1.633260e-03
1.716120e-03
1.782302e-03
1.831028e-03
1.861636e-03
1.873542e-03
1.866204e-03
1.839106e-03
1.791749e-03
1.723657e-03
1.634388e-03
1.523558e-03
1.390871e-03
1.236143e-03
1.059337e-03
8.605747e-04
6.401561e-04
3.985608e-04
1.364474e-04
8.141686e-05
2.487951e-04
4.231977e-04
6.015290e-04
7.804851e-04
9.567499e-04
1.127164e-03
1.288853e-03
1.439307e-03
1.576416e-03
1.698463e-03
1.804088e-03
1.892229e-03
1.962055e-03
2.012898e-03
2.044191e-03
2.055412e-03
2.046048e-03
2.015566e-03
1.963413e-03
1.889013e-03
1.791794e-03
1.671219e-03
1.526819e-03
1.358234e-03
1.165250e-03
9.478190e-04
7.060752e-04
4.403277e-04
1.510448e-04
9.111469e-05
2.784367e-04
4.733520e-04
6.721562e-04
8.709378e-04
1.065834e-03
1.253243e-03
1.429978e-03
1.593351e-03
1.741198e-03
1.871846e-03
1.984052e-03
2.076913e-03
2.149772e-03
2.202125e-03
2.233539e-03
2.243586e-03
2.231791e-03
2.197611e-03
2.140421e-03
2.059527e-03
1.954194e-03
1.823690e-03
1.667338e-03
1.484564e-03
1.274948e-03
1.038254e-03
7.744439e-04
4.836607e-04
1.661930e-04
1.016083e-04
3.106351e-04
5.279729e-04
7.491211e-04
9.693928e-04
1.184251e-03
1.389577e-03
1.581848e-03
1.758221e-03
1.916534e-03
2.055238e-03
2.173296e-03
2.270050e-03
2.345095e-03
2.398155e-03
2.428981e-03
2.437268e-03
2.422599e-03
2.384413e-03
2.321998e-03
2.234509e-03
2.121006e-03
1.980513e-03
1.812091e-03
1.614902e-03
1.388283e-03
1.131789e-03
8.452046e-04
5.285213e-04
1.818751e-04
1.130718e-04
3.459420e-04
5.879960e-04
8.336861e-04
1.077333e-03
1.313572e-03
1.537684e-03
1.745804e-03
1.934984e-03
2.103157e-03
2.249013e-03
2.371838e-03
2.471330e-03
2.547432e-03
2.600172e-03
2.629539e-03
2.635387e-03
2.617368e-03
2.574897e-03
2.507151e-03
2.413092e-03
2.291518e-03
2.141146e-03
1.960699e-03
1.749015e-03
1.505135e-03
1.228373e-03
9.183374e-04
5.748957e-04
1.980816e-04
1.257409e-04
3.850976e-04
6.546616e-04
9.274994e-04
1.196659e-03
1.455759e-03
1.699406e-03
1.923410e-03
2.124818e-03
2.301796e-03
2.453435e-03
2.579497e-03
2.680179e-03
2.755882e-03
2.807025e-03
2.833893e-03
2.836532e-03
2.814671e-03
2.767694e-03
2.694633e-03
2.594202e-03
2.464870e-03
2.304955e-03
2.112757e-03
1.886695e-03
1.625441e-03
1.328029e-03
9.938909e-04
6.228161e-04
2.148174e-04
1.399366e-04
4.291010e-04
7.296231e-04
1.032721e-03
1.329806e-03
1.613263e-03
1.876961e-03
2.116464e-03
2.328974e-03
2.513108e-03
2.668571e-03
2.795807e-03
2.895671e-03
2.969153e-03
3.017151e-03
3.040306e-03
3.038884e-03
3.012701e-03
2.961089e-03
2.882895e-03
2.776525e-03
2.640027e-03
2.471215e-03
2.267841e-03
2.027781e-03
1.749238e-03
1.430902e-03
1.072027e-03
6.723910e-04
2.321129e-04
1.560991e-04
4.793117e-04
8.150995e-04
1.152196e-03
1.479901e-03
1.789124e-03
2.072987e-03
2.326971e-03
2.548708e-03
2.737572e-03
2.894175e-03
3.019885e-03
3.116407e-03
3.185450e-03
3.228482e-03
3.246547e-03
3.240156e-03
3.209209e-03
3.152963e-03
3.070038e-03
2.958459e-03
2.815750e-03
2.639088e-03
2.425516e-03
2.172200e-03
1.876722e-03
1.537329e-03
1.153085e-03
7.238506e-04
2.500388e-04
1.748389e-04
5.375991e-04
9.140962e-04
1.289688e-03
1.650953e-03
1.987087e-03
2.290554e-03
2.557076e-03
2.785148e-03
2.975329e-03
3.129514e-03
3.250281e-03
3.340383e-03
3.402375e-03
3.438361e-03
3.449825e-03
3.437529e-03
3.401448e-03
3.340743e-03
3.253757e-03
3.138062e-03
2.990549e-03
2.807599e-03
2.585342e-03
2.320003e-03
2.008317e-03
1.647928e-03
1.237672e-03
7.776113e-04
2.687290e-04
1.970154e-04
6.065703e-04
1.030728e-03
1.450206e-03
1.848097e-03
2.211698e-03
2.533120e-03
2.808906e-03
3.039064e-03
3.225932e-03
3.373138e-03
3.484777e-03
3.564835e-03
3.616806e-03
3.643462e-03
3.646731e-03
3.627611e-03
3.586137e-03
3.521347e-03
3.431278e-03
3.312984e-03
3.162615e-03
2.975582e-03
2.746852e-03
2.471395e-03
2.144763e-03
1.763729e-03
1.326796e-03
8.343727e-04
2.884141e-04
2.238598e-04
6.899233e-04
1.170701e-03
1.640455e-03
2.077863e-03
2.468347e-03
2.804363e-03
3.084258e-03
3.310511e-03
3.487995e-03
3.622578e-03
3.720162e-03
3.786088e-03
3.824810e-03
3.839747e-03
3.833219e-03
3.806428e-03
3.759438e-03
3.691156e-03
3.599298e-03
3.480374e-03
3.329710e-03
3.141576e-03
2.909489e-03
2.626742e-03
2.287211e-03
1.886338e-03
1.422055e-03
8.952656e-04
3.094735e-04
2.571899e-04
7.930323e-04
1.342063e-03
1.869451e-03
2.348460e-03
2.763167e-03
3.107784e-03
3.384058e-03
3.598268e-03
3.758712e-03
3.873990e-03
3.951992e-03
3.999418e-03
4.021593e-03
4.022465e-03
4.004647e-03
3.969468e-03
3.916995e-03
3.846009e-03
3.753938e-03
3.636775e-03
3.489009e-03
3.303648e-03
3.072453e-03
2.786518e-03
2.437309e-03
2.018164e-03
1.525930e-03
9.620821e-04
3.325165e-04
2.997380e-04
9.238794e-04
1.556318e-03
2.149303e-03
2.669922e-03
3.102582e-03
3.445898e-03
3.707461e-03
3.899036e-03
4.033253e-03
4.121753e-03
4.174381e-03
4.198989e-03
4.201532e-03
4.186256e-03
4.155896e-03
4.111809e-03
4.054030e-03
3.981252e-03
3.890709e-03
3.778001e-03
3.636881e-03
3.459091e-03
3.234403e-03
2.951107e-03
2.597233e-03
2.162718e-03
1.642235e-03
1.037677e-03
3.585293e-04
3.559490e-04
1.094919e-03
1.830391e-03
2.496234e-03
3.053883e-03
3.492170e-03
3.818749e-03
4.050462e-03
4.206386e-03
4.304081e-03
4.358123e-03
4.379894e-03
4.377918e-03
4.358335e-03
4.325358e-03
4.281608e-03
4.228342e-03
4.165540e-03
4.091875e-03
4.004554e-03
3.899030e-03
3.768603e-03
3.603972e-03
3.392898e-03
3.120319e-03
2.769499e-03
2.324872e-03
1.776765e-03
1.126585e-03
3.890914e-04
4.327457e-04
1.325605e-03
2.188925e-03
2.931125e-03
3.512164e-03
3.934188e-03
4.221397e-03
4.403957e-03
4.509533e-03
4.560355e-03
4.573073e-03
4.559670e-03
4.528534e-03
4.485388e-03
4.433982e-03
4.376557e-03
4.314134e-03
4.246619e-03
4.172771e-03
4.089999e-03
3.993981e-03
3.878074e-03
3.732506e-03
3.543461e-03
3.292380e-03
2.956386e-03
2.511263e-03
1.938614e-03
1.236508e-03
4.269913e-04
5.446532e-04
1.650944e-03
2.670099e-03
3.479338e-03
4.052704e-03
4.422762e-03
4.640122e-03
4.751426e-03
4.792287e-03
4.787717e-03
4.754554e-03
4.703894e-03
4.642942e-03
4.576308e-03
4.506842e-03
4.436153e-03
4.364905e-03
4.292926e-03
4.219171e-03
4.141507e-03
4.056293e-03
3.957655e-03
3.836361e-03
3.678201e-03
3.461999e-03
3.158007e-03
2.729297e-03
2.140935e-03
1.379856e-03
4.767349e-04
7.110003e-04
2.124645e-03
3.325472e-03
4.164382e-03
4.670022e-03
4.935722e-03
5.047673e-03
5.067057e-03
5.032896e-03
4.968972e-03
4.889458e-03
4.802782e-03
4.713904e-03
4.625715e-03
4.539832e-03
4.457057e-03
4.377622e-03
4.301279e-03
4.227263e-03
4.154112e-03
4.079284e-03
3.998455e-03
3.904260e-03
3.784191e-03
3.617056e-03
3.368291e-03
2.986054e-03
2.406118e-03
1.582738e-03
5.489485e-04
1.014430e-03
2.876956e-03
4.228035e-03
4.987309e-03
5.325327e-03
5.424094e-03
5.399688e-03
5.316083e-03
5.205892e-03
5.086194e-03
4.965498e-03
4.848096e-03
4.736022e-03
4.630155e-03
4.530769e-03
4.437828e-03
4.351126e-03
4.270341e-03
4.195005e-03
4.124399e-03
4.057299e-03
3.991472e-03
3.922658e-03
3.842569e-03
3.734642e-03
3.566851e-03
3.275925e-03
2.753702e-03
1.881282e-03
6.597059e-04
1.490430e-03
4.055375e-03
5.421287e-03
5.875156e-03
5.916808e-03
5.805193e-03
5.637794e-03
5.460151e-03
5.287082e-03
5.124566e-03
4.973953e-03
4.835050e-03
4.707050e-03
4.589019e-03
4.480081e-03
4.379498e-03
4.286695e-03
4.201272e-03
4.122987e-03
4.051732e-03
3.987459e-03
3.929988e-03
3.878566e-03
3.830707e-03
3.779357e-03
3.705785e-03
3.556759e-03
3.218204e-03
2.403550e-03
8.845620e-04
2.990705e-03
6.098838e-03
6.686825e-03
6.590083e-03
6.274031e-03
5.976838e-03
5.706133e-03
5.469548e-03
5.261510e-03
5.077334e-03
4.912683e-03
4.764136e-03
4.629011e-03
4.505245e-03
4.391271e-03
4.285925e-03
4.188397e-03
4.098198e-03
4.015160e-03
3.939474e-03
3.871742e-03
3.813076e-03
3.765220e-03
3.730551e-03
3.711979e-03
3.710197e-03
3.716886e-03
3.670747e-03
3.160569e-03
1.356083e-03
5.650153e-03
8.352582e-03
7.283930e-03
6.715479e-03
6.234234e-03
5.874029e-03
5.582421e-03
5.339744e-03
5.131971e-03
4.950213e-03
4.788407e-03
4.642285e-03
4.508763e-03
4.385567e-03
4.271002e-03
4.163816e-03
4.063107e-03
3.968297e-03
3.879120e-03
3.795675e-03
3.718515e-03
3.648841e-03
3.588818e-03
3.542161e-03
3.515259e-03
3.518711e-03
3.575602e-03
3.699291e-03
4.042967e-03
3.659582e-03
SCALARS STHETA double 1
LOOKUP_TABLE stheta
1.193197e-02
1.202836e-02
1.213098e-02
1.224125e-02
1.235971e-02
1.248657e-02
1.262194e-02
1.276593e-02
1.291871e-02
1.308050e-02
1.325159e-02
1.343237e-02
1.362331e-02
1.382499e-02
1.403808e-02
1.426339e-02
1.450183e-02
1.475446e-02
1.502251e-02
1.530735e-02
1.561060e-02
1.593407e-02
1.627987e-02
1.665042e-02
1.704853e-02
1.747751e-02
1.794126e-02
1.844448e-02
1.899307e-02
1.959481e-02
1.182407e-02
1.192211e-02
1.202527e-02
1.213457e-02
1.225079e-02
1.237442e-02
1.250581e-02
1.264527e-02
1.279307e-02
1.294954e-02
1.311507e-02
1.329009e-02
1.347511e-02
1.367074e-02
1.387769e-02
1.409678e-02
1.432893e-02
1.457523e-02
1.483690e-02
1.511536e-02
1.541223e-02
1.572936e-02
1.606889e-02
1.643332e-02
1.682555e-02
1.724899e-02
1.770771e-02
1.820664e-02
1.875185e-02
1.935084e-02
1.171716e-02
1.181603e-02
1.191897e-02
1.202705e-02
1.214111e-02
1.226177e-02
1.238953e-02
1.252482e-02
1.266803e-02
1.281957e-02
1.297989e-02
1.314948e-02
1.332890e-02
1.351878e-02
1.371986e-02
1.393296e-02
1.415906e-02
1.439922e-02
1.465471e-02
1.492694e-02
1.521756e-02
1.552844e-02
1.586177e-02
1.622007e-02
1.660630e-02
1.702396e-02
1.747719e-02
1.797102e-02
1.851155e-02
1.910629e-02
1.161264e-02
1.171114e-02
1.181312e-02
1.191957e-02
1.203133e-02
1.214907e-02
1.227337e-02
1.240472e-02
1.254359e-02
1.269048e-02
1.284587e-02
1.301030e-02
1.318437e-02
1.336874e-02
1.356417e-02
1.377152e-02
1.399174e-02
1.422595e-02
1.447541e-02
1.474154e-02
1.502601e-02
1.533071e-02
1.565784e-02
1.600995e-02
1.639003e-02
1.680161e-02
1.724887e-02
1.773682e-02
1.827152e-02
1.886035e-02
1.151096e-02
1.160805e-02
1.170834e-02
1.181271e-02
1.192193e-02
1.203667e-02
1.215753e-02
1.228505e-02
1.241976e-02
1.256217e-02
1.271283e-02
1.287232e-02
1.304124e-02
1.322031e-02
1.341029e-02
1.361205e-02
1.382657e-02
1.405497e-02
1.429852e-02
1.455865e-02
1.483704e-02
1.513559e-02
1.545650e-02
1.580234e-02
1.617610e-02
1.658130e-02
1.702210e-02
1.750347e-02
1.803135e-02
1.861289e-02
1.141211e-02
1.150698e-02
1.160496e-02
1.170680e-02
1.181319e-02
1.192478e-02
1.204216e-02
1.216588e-02
1.229650e-02
1.243457e-02
1.258065e-02
1.273534e-02
1.289928e-02
1.307320e-02
1.325788e-02
1.345420e-02
1.366316e-02
1.388587e-02
1.412361e-02
1.437782e-02
1.465018e-02
1.494259e-02
1.525725e-02
1.559672e-02
1.596396e-02
1.636249e-02
1.679640e-02
1.727058e-02
1.779081e-02
1.836400e-02
1.131587e-02
1.140791e-02
1.150307e-02
1.160198e-02
1.170527e-02
1.181352e-02
1.192732e-02
1.204723e-02
1.217379e-02
1.230758e-02
1.244916e-02
1.259916e-02
1.275825e-02
1.292714e-02
1.310664e-02
1.329764e-02
1.350114e-02
1.371825e-02
1.395027e-02
1.419863e-02
1.446499e-02
1.475125e-02
1.505961e-02
1.539260e-02
1.575316e-02
1.614474e-02
1.657139e-02
1.703787e-02
1.754980e-02
1.811386e-02
1.122190e-02
1.131066e-02
1.140259e-02
1.149824e-02
1.159816e-02
1.170290e-02
1.181302e-02
1.192905e-02
1.205154e-02
1.218107e-02
1.231821e-02
1.246360e-02
1.261791e-02
1.278187e-02
1.295629e-02
1.314205e-02
1.334017e-02
1.355177e-02
1.377812e-02
1.402066e-02
1.428105e-02
1.456116e-02
1.486316e-02
1.518957e-02
1.554329e-02
1.592770e-02
1.634676e-02
1.680513e-02
1.730825e-02
1.786258e-02
1.112983e-02
1.121497e-02
1.130335e-02
1.139547e-02
1.149180e-02
1.159286e-02
1.169917e-02
1.181125e-02
1.192964e-02
1.205491e-02
1.218764e-02
1.232846e-02
1.247805e-02
1.263714e-02
1.280654e-02
1.298714e-02
1.317995e-02
1.338609e-02
1.360682e-02
1.384358e-02
1.409799e-02
1.437192e-02
1.466753e-02
1.498726e-02
1.533399e-02
1.571103e-02
1.612225e-02
1.657217e-02
1.706610e-02
1.761026e-02
1.103926e-02
1.112053e-02
1.120512e-02
1.129348e-02
1.138603e-02
1.148325e-02
1.158564e-02
1.169369e-02
1.180794e-02
1.192893e-02
1.205725e-02
1.219352e-02
1.233843e-02
1.249269e-02
1.265712e-02
1.283262e-02
1.302017e-02
1.322089e-02
1.343603e-02
1.366702e-02
1.391546e-02
1.418320e-02
1.447235e-02
1.478534e-02
1.512496e-02
1.549446e-02
1.589762e-02
1.633884e-02
1.682326e-02
1.735692e-02
1.094978e-02
1.102700e-02
1.110762e-02
1.119203e-02
1.128064e-02
1.137390e-02
1.147226e-02
1.157620e-02
1.168625e-02
1.180294e-02
1.192684e-02
1.205857e-02
1.219881e-02
1.234828e-02
1.250778e-02
1.267820e-02
1.286053e-02
1.305586e-02
1.326544e-02
1.349067e-02
1.373314e-02
1.399467e-02
1.427732e-02
1.458348e-02
1.491589e-02
1.527772e-02
1.567265e-02
1.610496e-02
1.657964e-02
1.710255e-02
1.086100e-02
1.093402e-02
1.101052e-02
1.109085e-02
1.117540e-02
1.126457e-02
1.135881e-02
1.145858e-02
1.156438e-02
1.167672e-02
1.179619e-02
1.192338e-02
1.205896e-02
1.220365e-02
1.235824e-02
1.252361e-02
1.270074e-02
1.289070e-02
1.309474e-02
1.331422e-02
1.355072e-02
1.380601e-02
1.408213e-02
1.438141e-02
1.470652e-02
1.506057e-02
1.544713e-02
1.587036e-02
1.633513e-02
1.684709e-02
1.077253e-02
1.084125e-02
1.091352e-02
1.098966e-02
1.107003e-02
1.115503e-02
1.124507e-02
1.134059e-02
1.144208e-02
1.155006e-02
1.166506e-02
1.178770e-02
1.191863e-02
1.205854e-02
1.220824e-02
1.236858e-02
1.254052e-02
1.272514e-02
1.292364e-02
1.313738e-02
1.336790e-02
1.361694e-02
1.388649e-02
1.417884e-02
1.449659e-02
1.484276e-02
1.522084e-02
1.563489e-02
1.608959e-02
1.659047e-02
1.068397e-02
1.074831e-02
1.081626e-02
1.088812e-02
1.096424e-02
1.104499e-02
1.113075e-02
1.122198e-02
1.131912e-02
1.142269e-02
1.153322e-02
1.165129e-02
1.177755e-02
1.191270e-02
1.205751e-02
1.221283e-02
1.237960e-02
1.255888e-02
1.275186e-02
1.295986e-02
1.318440e-02
1.342717e-02
1.369013e-02
1.397550e-02
1.428584e-02
1.462407e-02
1.499360e-02
1.539834e-02
1.584289e-02
1.633257e-02
1.059494e-02
1.065485e-02
1.071842e-02
1.078594e-02
1.085773e-02
1.093416e-02
1.101560e-02
1.110248e-02
1.119523e-02
1.129436e-02
1.140039e-02
1.151388e-02
1.163548e-02
1.176586e-02
1.190579e-02
1.205609e-02
1.221771e-02
1.239166e-02
1.257912e-02
1.278139e-02
1.299994e-02
1.323644e-02
1.349279e-02
1.377116e-02
1.407404e-02
1.440428e-02
1.476518e-02
1.516055e-02
1.559485e-02
1.607325e-02
1.050507e-02
1.056051e-02
1.061964e-02
1.068277e-02
1.075019e-02
1.082225e-02
1.089932e-02
1.098181e-02
1.107014e-02
1.116480e-02
1.126631e-02
1.137521e-02
1.149214e-02
1.161775e-02
1.175280e-02
1.189810e-02
1.205456e-02
1.222320e-02
1.240515e-02
1.260169e-02
1.281425e-02
1.304447e-02
1.329420e-02
1.356555e-02
1.386095e-02
1.418315e-02
1.453538e-02
1.492134e-02
1.534533e-02
1.581239e-02
1.041399e-02
1.046492e-02
1.051960e-02
1.057829e-02
1.064129e-02
1.070895e-02
1.078161e-02
1.085967e-02
1.094356e-02
1.103374e-02
1.113070e-02
1.123501e-02
1.134726e-02
1.146810e-02
1.159828e-02
1.173858e-02
1.188990e-02
1.205323e-02
1.222968e-02
1.242049e-02
1.262708e-02
1.285102e-02
1.309413e-02
1.335845e-02
1.364634e-02
1.396049e-02
1.430401e-02
1.468051e-02
1.509415e-02
1.554982e-02
1.032134e-02
1.036775e-02
1.041793e-02
1.047216e-02
1.053072e-02
1.059394e-02
1.066217e-02
1.073579e-02
1.081520e-02
1.090088e-02
1.099329e-02
1.109299e-02
1.120056e-02
1.131664e-02
1.144194e-02
1.157725e-02
1.172344e-02
1.188148e-02
1.205244e-02
1.223755e-02
1.243817e-02
1.265584e-02
1.289232e-02
1.314961e-02
1.342999e-02
1.373607e-02
1.407088e-02
1.443789e-02
1.484115e-02
1.528539e-02
1.022677e-02
1.026864e-02
1.031432e-02
1.036406e-02
1.041816e-02
1.047692e-02
1.054069e-02
1.060984e-02
1.068477e-02
1.076593e-02
1.085379e-02
1.094888e-02
1.105176e-02
1.116308e-02
1.128353e-02
1.141386e-02
1.155494e-02
1.170769e-02
1.187319e-02
1.205260e-02
1.224727e-02
1.245868e-02
1.268855e-02
1.293882e-02
1.321169e-02
1.350970e-02
1.383578e-02
1.419329e-02
1.458616e-02
1.501896e-02
1.012992e-02
1.016725e-02
1.020841e-02
1.025366e-02
1.030327e-02
1.035756e-02
1.041686e-02
1.048153e-02
1.055197e-02
1.062860e-02
1.071190e-02
1.080238e-02
1.090060e-02
1.100716e-02
1.112276e-02
1.124813e-02
1.138411e-02
1.153161e-02
1.169165e-02
1.186540e-02
1.205413e-02
1.225931e-02
1.248259e-02
1.272585e-02
1.299123e-02
1.328118e-02
1.359853e-02
1.394655e-02
1.432902e-02
1.475036e-02
1.003046e-02
1.006324e-02
1.009987e-02
1.014062e-02
1.018574e-02
1.023555e-02
1.029037e-02
1.035056e-02
1.041649e-02
1.048860e-02
1.056735e-02
1.065322e-02
1.074677e-02
1.084860e-02
1.095937e-02
1.107980e-02
1.121070e-02
1.135297e-02
1.150759e-02
1.167570e-02
1.185853e-02
1.205750e-02
1.227422e-02
1.251050e-02
1.276840e-02
1.305032e-02
1.335896e-02
1.369750e-02
1.406958e-02
1.447946e-02
9.928041e-03
9.956272e-03
9.988381e-03
1.002462e-02
1.006525e-02
1.011057e-02
1.016091e-02
1.021660e-02
1.027804e-02
1.034563e-02
1.041982e-02
1.050110e-02
1.059001e-02
1.068712e-02
1.079308e-02
1.090859e-02
1.103445e-02
1.117152e-02
1.132076e-02
1.148325e-02
1.166022e-02
1.185303e-02
1.206322e-02
1.229255e-02
1.254303e-02
1.281693e-02
1.311690e-02
1.344598e-02
1.380769e-02
1.420614e-02
9.822329e-03
9.846017e-03
9.873602e-03
9.905328e-03
9.941463e-03
9.982300e-03
1.002815e-02
1.007937e-02
1.013631e-02
1.019939e-02
1.026904e-02
1.034575e-02
1.043002e-02
1.052244e-02
1.062362e-02
1.073425e-02
1.085510e-02
1.098701e-02
1.113090e-02
1.128784e-02
1.145899e-02
1.164568e-02
1.184940e-02
1.207183e-02
1.231492e-02
1.258086e-02
1.287220e-02
1.319185e-02
1.354322e-02
1.393026e-02
9.712997e-03
9.732147e-03
9.755211e-03
9.782431e-03
9.814074e-03
9.850428e-03
9.891804e-03
9.938540e-03
9.991001e-03
1.004958e-02
1.011471e-02
1.018686e-02
1.026653e-02
1.035428e-02
1.045072e-02
1.055651e-02
1.067240e-02
1.079919e-02
1.093780e-02
1.108923e-02
1.125463e-02
1.143525e-02
1.163255e-02
1.184815e-02
1.208390e-02
1.234194e-02
1.262470e-02
1.293499e-02
1.327607e-02
1.365174e-02
9.599719e-03
9.614339e-03
9.632886e-03
9.655606e-03
9.682762e-03
9.714639e-03
9.751545e-03
9.793814e-03
9.841805e-03
9.895907e-03
9.956540e-03
1.002416e-02
1.009926e-02
1.018239e-02
1.027412e-02
1.037512e-02
1.048610e-02
1.060784e-02
1.074121e-02
1.088721e-02
1.104691e-02
1.122154e-02
1.141249e-02
1.162133e-02
1.184983e-02
1.210004e-02
1.237429e-02
1.267528e-02
1.300613e-02
1.337048e-02
9.482176e-03
9.492271e-03
9.506310e-03
9.524534e-03
9.547209e-03
9.574617e-03
9.607065e-03
9.644882e-03
9.688422e-03
9.738068e-03
9.794231e-03
9.857357e-03
9.927929e-03
1.000647e-02
1.009356e-02
1.018983e-02
1.029595e-02
1.041270e-02
1.054092e-02
1.068155e-02
1.083564e-02
1.100437e-02
1.118906e-02
1.139122e-02
1.161255e-02
1.185502e-02
1.212085e-02
1.241262e-02
1.273333e-02
1.308644e-02
9.360052e-03
9.365630e-03
9.375164e-03
9.388900e-03
9.407102e-03
9.430052e-03
9.458055e-03
9.491437e-03
9.530549e-03
9.575767e-03
9.627494e-03
9.686167e-03
9.752258e-03
9.826276e-03
9.908779e-03
1.000037e-02
1.010172e-02
1.021357e-02
1.033672e-02
1.047207e-02
1.062064e-02
1.078356e-02
1.096209e-02
1.115768e-02
1.137195e-02
1.160678e-02
1.186429e-02
1.214695e-02
1.245761e-02
1.279957e-02
9.233036e-03
9.234101e-03
9.239137e-03
9.248390e-03
9.262126e-03
9.280630e-03
9.304203e-03
9.333172e-03
9.367883e-03
9.408706e-03
9.456039e-03
9.510308e-03
9.571972e-03
9.641529e-03
9.719515e-03
9.806518e-03
9.903181e-03
1.001021e-02
1.012838e-02
1.025857e-02
1.040173e-02
1.055895e-02
1.073144e-02
1.092058e-02
1.112791e-02
1.135522e-02
1.160454e-02
1.187821e-02
1.217894e-02
1.250987e-02
9.100820e-03
9.097375e-03
9.097916e-03
9.102691e-03
9.111970e-03
9.126038e-03
9.145199e-03
9.169779e-03
9.200119e-03
9.236588e-03
9.279574e-03
9.329496e-03
9.386800e-03
9.451968e-03
9.525521e-03
9.608025e-03
9.700099e-03
9.802419e-03
9.915733e-03
1.004087e-02
1.017875e-02
1.033040e-02
1.049699e-02
1.067981e-02
1.088034e-02
1.110028e-02
1.134156e-02
1.160638e-02
1.189732e-02
1.221737e-02
8.963103e-03
8.955147e-03
8.951191e-03
8.951491e-03
8.956318e-03
8.965963e-03
8.980731e-03
9.000948e-03
9.026954e-03
9.059114e-03
9.097809e-03
9.143449e-03
9.196468e-03
9.257334e-03
9.326550e-03
9.404661e-03
9.492259e-03
9.589994e-03
9.698579e-03
9.818803e-03
9.951545e-03
1.009778e-02
1.025861e-02
1.043528e-02
1.062918e-02
1.084192e-02
1.107531e-02
1.133146e-02
1.161279e-02
1.192210e-02
8.819584e-03
8.807111e-03
8.798654e-03
8.794475e-03
8.794855e-03
8.800088e-03
8.810483e-03
8.826367e-03
8.848081e-03
8.875983e-03
8.910451e-03
8.951885e-03
9.000708e-03
9.057372e-03
9.122362e-03
9.196200e-03
9.279455e-03
9.372744e-03
9.476749e-03
9.592218e-03
9.719985e-03
9.860978e-03
1.001624e-02
1.018693e-02
1.037439e-02
1.058011e-02
1.080582e-02
1.105349e-02
1.132539e-02
1.162417e-02
8.669968e-03
8.652963e-03
8.639993e-03
8.631330e-03
8.627263e-03
8.628094e-03
8.634137e-03
8.645721e-03
8.663187e-03
8.686892e-03
8.717208e-03
8.754524e-03
8.799252e-03
8.851829e-03
8.912720e-03
8.982425e-03
9.061486e-03
9.150491e-03
9.250085e-03
9.360978e-03
9.483957e-03
9.619899e-03
9.769783e-03
9.934712e-03
1.011593e-02
1.031486e-02
1.053310e-02
1.077251e-02
1.103523e-02
1.132371e-02
8.513960e-03
8.492399e-03
8.474896e-03
8.461735e-03
8.453218e-03
8.449654e-03
8.451366e-03
8.458687e-03
8.471959e-03
8.491535e-03
8.517783e-03
8.551084e-03
8.591834e-03
8.640456e-03
8.697394e-03
8.763126e-03
8.838165e-03
8.923068e-03
9.018444e-03
9.124963e-03
9.243366e-03
9.374475e-03
9.519211e-03
9.678608e-03
9.853832e-03
1.004621e-02
1.025724e-02
1.048865e-02
1.074243e-02
1.102087e-02
8.351265e-03
8.325112e-03
8.303044e-03
8.285364e-03
8.272386e-03
8.264433e-03
8.261837e-03
8.264935e-03
8.274072e-03
8.289600e-03
8.311880e-03
8.341281e-03
8.378190e-03
8.423009e-03
8.476163e-03
8.538104e-03
8.609316e-03
8.690324e-03
8.781702e-03
8.884075e-03
8.998138e-03
9.124661e-03
9.264503e-03
9.418629e-03
9.588125e-03
9.774222e-03
9.978322e-03
1.020202e-02
1.044717e-02
1.071587e-02
8.181589e-03
8.150790e-03
8.124113e-03
8.101881e-03
8.084425e-03
8.072085e-03
8.065204e-03
8.064125e-03
8.069196e-03
8.080768e-03
8.099194e-03
8.124833e-03
8.158057e-03
8.199250e-03
8.248812e-03
8.307170e-03
8.374778e-03
8.452127e-03
8.539752e-03
8.638237e-03
8.748227e-03
8.870439e-03
9.005671e-03
9.154818e-03
9.318886e-03
9.499015e-03
9.696499e-03
9.912815e-03
1.014966e-02
1.040897e-02
8.004630e-03
7.969112e-03
7.937764e-03
7.910934e-03
7.888976e-03
7.872248e-03
7.861105e-03
7.855902e-03
7.856988e-03
7.864711e-03
7.879417e-03
7.901454e-03
7.931175e-03
7.968943e-03
8.015135e-03
8.070148e-03
8.134406e-03
8.208362e-03
8.292512e-03
8.387397e-03
8.493613e-03
8.611821e-03
8.742759e-03
8.887251e-03
9.046225e-03
9.220728e-03
9.411950e-03
9.621242e-03
9.850155e-03
1.010047e-02
7.820081e-03
7.779745e-03
7.743643e-03
7.712153e-03
7.685657e-03
7.664536e-03
7.649160e-03
7.639894e-03
7.637089e-03
7.641090e-03
7.652234e-03
7.670854e-03
7.697284e-03
7.731863e-03
7.774939e-03
7.826880e-03
7.888074e-03
7.958938e-03
8.039925e-03
8.131532e-03
8.234306e-03
8.348852e-03
8.475846e-03
8.616043e-03
8.770291e-03
8.939548e-03
9.124897e-03
9.327568e-03
9.548968e-03
9.790707e-03
7.627619e-03
7.582337e-03
7.541371e-03
7.505141e-03
7.474062e-03
7.448539e-03
7.428963e-03
7.415706e-03
7.409124e-03
7.409554e-03
7.417323e-03
7.432745e-03
7.456130e-03
7.487791e-03
7.528044e-03
7.577223e-03
7.635678e-03
7.703788e-03
7.781963e-03
7.870652e-03
7.970352e-03
8.081615e-03
8.205052e-03
8.341350e-03
8.491279e-03
8.655706e-03
8.835611e-03
9.032105e-03
9.246452e-03
9.480098e-03
7.426903e-03
7.376506e-03
7.330538e-03
7.289467e-03
7.253746e-03
7.223811e-03
7.200073e-03
7.182916e-03
7.172693e-03
7.169736e-03
7.174352e-03
7.186834e-03
7.207463e-03
7.236519e-03
7.274286e-03
7.321056e-03
7.377141e-03
7.442877e-03
7.518630e-03
7.604802e-03
7.701838e-03
7.810233e-03
7.930539e-03
8.063374e-03
8.209429e-03
8.369483e-03
8.544414e-03
8.735215e-03
8.943015e-03
9.169095e-03
7.217562e-03
7.161836e-03
7.110691e-03
7.064650e-03
7.024217e-03
6.989860e-03
6.962013e-03
6.941067e-03
6.927374e-03
6.921250e-03
6.922980e-03
6.932828e-03
6.951040e-03
6.977857e-03
7.013522e-03
7.058286e-03
7.112417e-03
7.176206e-03
7.249971e-03
7.334068e-03
7.428890e-03
7.534877e-03
7.652519e-03
7.782366e-03
7.925033e-03
8.081212e-03
8.251681e-03
8.437319e-03
8.639119e-03
8.858209e-03
6.999186e-03
6.937860e-03
6.881318e-03
6.830154e-03
6.784925e-03
6.746141e-03
6.714255e-03
6.689664e-03
6.672712e-03
6.663692e-03
6.662858e-03
6.670436e-03
6.686628e-03
6.711630e-03
6.745637e-03
6.788853e-03
6.841498e-03
6.903815e-03
6.976076e-03
7.058586e-03
7.151688e-03
7.255767e-03
7.371254e-03
7.498631e-03
7.638439e-03
7.791284e-03
7.957846e-03
8.138892e-03
8.335288e-03
8.548011e-03
6.771308e-03
6.704042e-03
6.641833e-03
6.585359e-03
6.535243e-03
6.492035e-03
6.456209e-03
6.428162e-03
6.408218e-03
6.396637e-03
6.393631e-03
6.399373e-03
6.414014e-03
6.437693e-03
6.470550e-03
6.512736e-03
6.564420e-03
6.625794e-03
6.697083e-03
6.778542e-03
6.870465e-03
6.973182e-03
7.087065e-03
7.212534e-03
7.350055e-03
7.500150e-03
7.663405e-03
7.840477e-03
8.032107e-03
8.239129e-03
6.533385e-03
6.459755e-03
6.391550e-03
6.329549e-03
6.274447e-03
6.226840e-03
6.187217e-03
6.155962e-03
6.133366e-03
6.119641e-03
6.114939e-03
6.119367e-03
6.133008e-03
6.155935e-03
6.188223e-03
6.229965e-03
6.281274e-03
6.342291e-03
6.413192e-03
6.494185e-03
6.585514e-03
6.687459e-03
6.800338e-03
6.924505e-03
7.060357e-03
7.208332e-03
7.368924e-03
7.542682e-03
7.730228e-03
7.932260e-03
6.284773e-03
6.204254e-03
6.129654e-03
6.061874e-03
6.001692e-03
5.949747e-03
5.906531e-03
5.872401e-03
5.847592e-03
5.832245e-03
5.826430e-03
5.830168e-03
5.843457e-03
5.866292e-03
5.898674e-03
5.940630e-03
5.992215e-03
6.053519e-03
6.124669e-03
6.205828e-03
6.297196e-03
6.399007e-03
6.511524e-03
6.635043e-03
6.769890e-03
6.916423e-03
7.075043e-03
7.246193e-03
7.430378e-03
7.628167e-03
6.024687e-03
5.936630e-03
5.855159e-03
5.781318e-03
5.715980e-03
5.659816e-03
5.613305e-03
5.576747e-03
5.550293e-03
5.533980e-03
5.527766e-03
5.531562e-03
5.545262e-03
5.568766e-03
5.601992e-03
5.644897e-03
5.697476e-03
5.759767e-03
5.831854e-03
5.913860e-03
6.005946e-03
6.108303e-03
6.221148e-03
6.344721e-03
6.479278e-03
6.625099e-03
6.782486e-03
6.951780e-03
7.133367e-03
7.327693e-03
5.752155e-03
5.655761e-03
5.566854e-03
5.486651e-03
5.416120e-03
5.355951e-03
5.306577e-03
5.268198e-03
5.240837e-03
5.224382e-03
5.218645e-03
5.223394e-03
5.238397e-03
5.263442e-03
5.298358e-03
5.343025e-03
5.397379e-03
5.461413e-03
5.535173e-03
5.618749e-03
5.712273e-03
5.815902e-03
5.929813e-03
6.054191e-03
6.189228e-03
6.335120e-03
6.492071e-03
6.660310e-03
6.840101e-03
7.031768e-03
5.465952e-03
5.360236e-03
5.263233e-03
5.176361e-03
5.100681e-03
5.036869e-03
4.985255e-03
4.945880e-03
4.918572e-03
4.903017e-03
4.898827e-03
4.905596e-03
4.922938e-03
4.950517e-03
4.988063e-03
5.035381e-03
5.092354e-03
5.158935e-03
5.235144e-03
5.321053e-03
5.416772e-03
5.522439e-03
5.638197e-03
5.764187e-03
5.900534e-03
6.047346e-03
6.204720e-03
6.372758e-03
6.551596e-03
6.741428e-03
5.164505e-03
5.048256e-03
4.942396e-03
4.848579e-03
4.767936e-03
4.701067e-03
4.648115e-03
4.608865e-03
4.582862e-03
4.569512e-03
4.568175e-03
4.578225e-03
4.599101e-03
4.630329e-03
4.671540e-03
4.722468e-03
4.782953e-03
4.852923e-03
4.932387e-03
5.021415e-03
5.120117e-03
5.228623e-03
5.347059e-03
5.475526e-03
5.614083e-03
5.762742e-03
5.921475e-03
6.090237e-03
6.269007e-03
6.457837e-03
4.845764e-03
4.717488e-03
4.601917e-03
4.500968e-03
4.415789e-03
4.346795e-03
4.293801e-03
4.256199e-03
4.233126e-03
4.223617e-03
4.226708e-03
4.241517e-03
4.267286e-03
4.303398e-03
4.349391e-03
4.404943e-03
4.469866e-03
4.544087e-03
4.627625e-03
4.720572e-03
4.823062e-03
4.935239e-03
5.057229e-03
5.189104e-03
5.330858e-03
5.482392e-03
5.643525e-03
5.814023e-03
5.993665e-03
6.182329e-03
4.507007e-03
4.364856e-03
4.238653e-03
4.130582e-03
4.041699e-03
3.972035e-03
3.920860e-03
3.886966e-03
3.868924e-03
3.865281e-03
3.874683e-03
3.895955e-03
3.928133e-03
3.970469e-03
4.022423e-03
4.083641e-03
4.153938e-03
4.233265e-03
4.321687e-03
4.419346e-03
4.526430e-03
4.643130e-03
4.769595e-03
4.905887e-03
5.051934e-03
5.207509e-03
5.372227e-03
5.545600e-03
5.727133e-03
5.916461e-03
4.144548e-03
3.986228e-03
3.848471e-03
3.733687e-03
3.642598e-03
3.574513e-03
3.527809e-03
3.500396e-03
3.490071e-03
3.494769e-03
3.512689e-03
3.542347e-03
3.582588e-03
3.632558e-03
3.691677e-03
3.759599e-03
3.836178e-03
3.921431e-03
4.015504e-03
4.118633e-03
4.231100e-03
4.353181e-03
4.485087e-03
4.626894e-03
4.778474e-03
4.939441e-03
5.109146e-03
5.286731e-03
5.471291e-03
5.662107e-03
3.753293e-03
3.575959e-03
3.425886e-03
3.305541e-03
3.214836e-03
3.151769e-03
3.113297e-03
3.096049e-03
3.096820e-03
3.112822e-03
3.141780e-03
3.181929e-03
3.231970e-03
3.291002e-03
3.358463e-03
3.434069e-03
3.517765e-03
3.609684e-03
3.710099e-03
3.819388e-03
3.937976e-03
4.066281e-03
4.204629e-03
4.353156e-03
4.511698e-03
4.679689e-03
4.856112e-03
5.039563e-03
5.228491e-03
5.421609e-03
3.325935e-03
3.126018e-03
2.963397e-03
2.840080e-03
2.754186e-03
2.701369e-03
2.676384e-03
2.674110e-03
2.690118e-03
2.720854e-03
2.763620e-03
2.816462e-03
2.878037e-03
2.947495e-03
3.024374e-03
3.108525e-03
3.200047e-03
3.299241e-03
3.406566e-03
3.522592e-03
3.647956e-03
3.783282e-03
3.929090e-03
4.085656e-03
4.252834e-03
4.429870e-03
4.615253e-03
4.806750e-03
5.001754e-03
5.197987e-03
2.851866e-03
2.625108e-03
2.450973e-03
2.329796e-03
2.256044e-03
2.221329e-03
2.217046e-03
2.235830e-03
2.271949e-03
2.321199e-03
2.380645e-03
2.448333e-03
2.523046e-03
2.604118e-03
2.691299e-03
2.784659e-03
2.884521e-03
2.991417e-03
3.106042e-03
3.229225e-03
3.361879e-03
3.504927e-03
3.659193e-03
3.825223e-03
4.003017e-03
4.191694e-03
4.389132e-03
4.591834e-03
4.795315e-03
4.995554e-03
2.313739e-03
2.054863e-03
1.873902e-03
1.765504e-03
1.716254e-03
1.711074e-03
1.736989e-03
1.784145e-03
1.845751e-03
1.917367e-03
1.996205e-03
2.080623e-03
2.169767e-03
2.263329e-03
2.361397e-03
2.464352e-03
2.572811e-03
2.687590e-03
2.809678e-03
2.940217e-03
3.080473e-03
3.231773e-03
3.395397e-03
3.572366e-03
3.763077e-03
3.966716e-03
4.180509e-03
4.399096e-03
4.614886e-03
4.820033e-03
1.686607e-03
1.391677e-03
1.213961e-03
1.137055e-03
1.132293e-03
1.173065e-03
1.240890e-03
1.324433e-03
1.416839e-03
1.514244e-03
1.614636e-03
1.717109e-03
1.821457e-03
1.927922e-03
2.037052e-03
2.149627e-03
2.266614e-03
2.389162e-03
2.518592e-03
2.656408e-03
2.804298e-03
2.964104e-03
3.137747e-03
3.327026e-03
3.533170e-03
3.756036e-03
3.992729e-03
4.235692e-03
4.471020e-03
4.683454e-03
9.083241e-04
5.780216e-04
4.443619e-04
4.391348e-04
5.082985e-04
6.153451e-04
7.379483e-04
8.652714e-04
9.926997e-04
1.118156e-03
1.241215e-03
1.362172e-03
1.481755e-03
1.600922e-03
1.720783e-03
1.842574e-03
1.967650e-03
2.097513e-03
2.233838e-03
2.378519e-03
2.533711e-03
2.701866e-03
2.885737e-03
3.088276e-03
3.312233e-03
3.559347e-03
3.827444e-03
4.106685e-03
4.375335e-03
4.596166e-03
-7.726173e-05
-4.209368e-04
-4.709134e-04
-3.289872e-04
-1.383799e-04
5.517794e-05
2.430967e-04
4.187579e-04
5.828806e-04
7.366292e-04
8.818936e-04
1.020562e-03
1.154484e-03
1.285430e-03
1.415117e-03
1.545250e-03
1.677576e-03
1.813941e-03
1.956366e-03
2.107124e-03
2.268844e-03
2.444633e-03
2.638204e-03
2.853992e-03
3.097132e-03
3.372911e-03
3.684020e-03
4.027391e-03
4.369767e-03
4.631685e-03
-1.725969e-03
-1.808531e-03
-1.464513e-03
-1.121229e-03
-7.705839e-04
-4.781003e-04
-2.229099e-04
-7.307713e-08
1.983418e-04
3.778177e-04
5.428602e-04
6.970608e-04
8.434005e-04
9.844361e-04
1.122453e-03
1.259586e-03
1.397930e-03
1.539636e-03
1.687020e-03
1.842691e-03
2.009700e-03
2.191754e-03
2.393514e-03
2.621002e-03
2.882272e-03
3.188020e-03
3.552630e-03
3.986496e-03
4.439692e-03
4.787193e-03
-4.186847e-03
-3.778587e-03
-2.478784e-03
-1.830343e-03
-1.329228e-03
-9.474761e-04
-6.367346e-04
-3.758029e-04
-1.502793e-04
4.931590e-05
2.297104e-04
3.958986e-04
5.517704e-04
7.005025e-04
8.448213e-04
9.871929e-04
1.129973e-03
1.275540e-03
1.426430e-03
1.585492e-03
1.756081e-03
1.942342e-03
2.149631e-03
2.385198e-03
2.659432e-03
2.988090e-03
3.398216e-03
3.941265e-03
4.764190e-03
6.013754e-03
SCALARS Mises double 1
LOOKUP_TABLE stheta
1.033963e-02
1.041830e-02
1.050507e-02
1.060087e-02
1.070599e-02
1.082051e-02
1.094454e-02
1.107826e-02
1.122198e-02
1.137613e-02
1.154128e-02
1.171819e-02
1.190775e-02
1.211107e-02
1.232944e-02
1.256439e-02
1.281773e-02
1.309154e-02
1.338826e-02
1.371072e-02
1.406222e-02
1.444661e-02
1.486836e-02
1.533271e-02
1.584579e-02
1.641474e-02
1.704789e-02
1.775487e-02
1.854658e-02
1.943475e-02
1.024951e-02
1.032366e-02
1.040805e-02
1.050168e-02
1.060413e-02
1.071541e-02
1.083570e-02
1.096527e-02
1.110452e-02
1.125398e-02
1.141430e-02
1.158627e-02
1.177084e-02
1.196917e-02
1.218257e-02
1.241261e-02
1.266111e-02
1.293017e-02
1.322224e-02
1.354015e-02
1.388717e-02
1.426711e-02
1.468436e-02
1.514404e-02
1.565204e-02
1.621519e-02
1.684133e-02
1.753940e-02
1.831950e-02
1.919309e-02
1.015700e-02
1.022503e-02
1.030592e-02
1.039708e-02
1.049733e-02
1.060626e-02
1.072387e-02
1.085041e-02
1.098630e-02
1.113211e-02
1.128852e-02
1.145640e-02
1.163674e-02
1.183073e-02
1.203973e-02
1.226534e-02
1.250939e-02
1.277400e-02
1.306163e-02
1.337508e-02
1.371761e-02
1.409295e-02
1.450540e-02
1.495992e-02
1.546218e-02
1.601870e-02
1.663693e-02
1.732534e-02
1.809364e-02
1.895315e-02
1.005999e-02
1.012305e-02
1.020053e-02
1.028924e-02
1.038749e-02
1.049450e-02
1.061005e-02
1.073427e-02
1.086756e-02
1.101045e-02
1.116369e-02
1.132814e-02
1.150486e-02
1.169505e-02
1.190013e-02
1.212171e-02
1.236164e-02
1.262207e-02
1.290543e-02
1.321453e-02
1.355255e-02
1.392318e-02
1.433060e-02
1.477961e-02
1.527568e-02
1.582508e-02
1.643496e-02
1.711353e-02
1.787031e-02
1.871666e-02
9.957933e-03
1.001788e-02
1.009272e-02
1.017933e-02
1.027582e-02
1.038120e-02
1.049507e-02
1.061743e-02
1.074859e-02
1.088910e-02
1.103967e-02
1.120120e-02
1.137476e-02
1.156158e-02
1.176312e-02
1.198100e-02
1.221710e-02
1.247356e-02
1.275281e-02
1.305762e-02
1.339115e-02
1.375699e-02
1.415923e-02
1.460251e-02
1.509216e-02
1.563421e-02
1.623564e-02
1.690448e-02
1.765020e-02
1.848422e-02
9.850954e-03
9.909614e-03
9.982864e-03
1.006795e-02
1.016305e-02
1.026707e-02
1.037952e-02
1.050030e-02
1.062968e-02
1.076814e-02
1.091640e-02
1.107535e-02
1.124609e-02
1.142988e-02
1.162816e-02
1.184260e-02
1.207508e-02
1.232774e-02
1.260300e-02
1.290361e-02
1.323266e-02
1.359368e-02
1.399066e-02
1.442813e-02
1.491125e-02
1.544593e-02
1.603899e-02
1.669837e-02
1.743350e-02
1.825582e-02
9.739469e-03
9.798391e-03
9.871141e-03
9.955406e-03
1.004954e-02
1.015251e-02
1.026377e-02
1.038320e-02
1.051100e-02
1.064764e-02
1.079382e-02
1.095044e-02
1.111859e-02
1.129955e-02
1.149478e-02
1.170596e-02
1.193498e-02
1.218397e-02
1.245535e-02
1.275181e-02
1.307642e-02
1.343263e-02
1.382434e-02
1.425598e-02
1.473261e-02
1.526000e-02
1.584488e-02
1.649512e-02
1.722008e-02
1.803114e-02
9.623995e-03
9.684442e-03
9.757687e-03
9.841843e-03
9.935503e-03
1.003773e-02
1.014804e-02
1.026628e-02
1.039266e-02
1.052762e-02
1.067186e-02
1.082629e-02
1.099200e-02
1.117027e-02
1.136259e-02
1.157063e-02
1.179629e-02
1.204170e-02
1.230925e-02
1.260162e-02
1.292182e-02
1.327325e-02
1.365974e-02
1.408561e-02
1.455584e-02
1.507611e-02
1.565305e-02
1.629445e-02
1.700961e-02
1.780974e-02
9.505068e-03
9.568045e-03
9.642643e-03
9.727349e-03
9.821004e-03
9.922823e-03
1.003238e-02
1.014959e-02
1.027466e-02
1.040803e-02
1.055042e-02
1.070273e-02
1.086606e-02
1.104172e-02
1.123118e-02
1.143615e-02
1.165851e-02
1.190039e-02
1.216416e-02
1.245248e-02
1.276832e-02
1.311502e-02
1.349634e-02
1.391655e-02
1.438051e-02
1.489385e-02
1.546311e-02
1.609597e-02
1.680161e-02
1.759106e-02
9.383213e-03
9.449502e-03
9.526163e-03
9.611997e-03
9.706082e-03
9.807797e-03
9.916822e-03
1.003313e-02
1.015696e-02
1.028880e-02
1.042936e-02
1.057957e-02
1.074055e-02
1.091360e-02
1.110023e-02
1.130213e-02
1.152120e-02
1.175956e-02
1.201958e-02
1.230388e-02
1.261539e-02
1.295742e-02
1.333366e-02
1.374831e-02
1.420618e-02
1.471279e-02
1.527460e-02
1.589918e-02
1.659556e-02
1.737452e-02
9.258924e-03
9.329129e-03
9.408420e-03
9.495867e-03
9.590761e-03
9.692644e-03
9.801314e-03
9.916825e-03
1.003947e-02
1.016979e-02
1.030852e-02
1.045661e-02
1.061520e-02
1.078562e-02
1.096938e-02
1.116819e-02
1.138395e-02
1.161878e-02
1.187503e-02
1.215531e-02
1.246253e-02
1.279994e-02
1.317119e-02
1.358042e-02
1.403235e-02
1.453244e-02
1.508702e-02
1.570355e-02
1.639086e-02
1.715949e-02
9.132663e-03
9.207237e-03
9.289604e-03
9.379053e-03
9.475067e-03
9.577345e-03
9.685809e-03
9.800606e-03
9.922105e-03
1.005089e-02
1.018775e-02
1.033366e-02
1.048979e-02
1.065750e-02
1.083832e-02
1.103396e-02
1.124635e-02
1.147761e-02
1.173007e-02
1.200633e-02
1.230927e-02
1.264211e-02
1.300844e-02
1.341236e-02
1.385851e-02
1.435225e-02
1.489981e-02
1.550849e-02
1.618691e-02
1.694533e-02
9.004858e-03
9.084138e-03
9.169915e-03
9.261664e-03
9.359040e-03
9.461889e-03
9.570257e-03
9.684389e-03
9.804737e-03
9.931948e-03
1.006686e-02
1.021050e-02
1.036408e-02
1.052897e-02
1.070674e-02
1.089912e-02
1.110805e-02
1.133565e-02
1.158426e-02
1.185647e-02
1.215513e-02
1.248342e-02
1.284491e-02
1.324362e-02
1.368412e-02
1.417168e-02
1.471239e-02
1.531339e-02
1.598307e-02
1.673141e-02
8.875911e-03
8.960133e-03
9.049560e-03
9.143826e-03
9.242740e-03
9.346283e-03
9.454621e-03
9.568104e-03
9.687269e-03
9.812836e-03
9.945705e-03
1.008695e-02
1.023784e-02
1.039977e-02
1.057435e-02
1.076334e-02
1.096869e-02
1.119253e-02
1.143721e-02
1.170530e-02
1.199966e-02
1.232342e-02
1.268010e-02
1.307368e-02
1.350864e-02
1.399015e-02
1.452415e-02
1.511762e-02
1.577870e-02
1.651704e-02
8.746198e-03
8.835518e-03
8.928755e-03
9.025684e-03
9.126246e-03
9.230552e-03
9.338884e-03
9.451695e-03
9.569613e-03
9.693436e-03
9.824134e-03
9.962842e-03
1.011087e-02
1.026967e-02
1.044089e-02
1.062632e-02
1.082792e-02
1.104787e-02
1.128851e-02
1.155241e-02
1.184240e-02
1.216161e-02
1.251351e-02
1.290201e-02
1.333152e-02
1.380707e-02
1.433450e-02
1.492055e-02
1.557314e-02
1.630158e-02
8.616078e-03
8.710584e-03
8.807725e-03
8.907395e-03
9.009659e-03
9.114748e-03
9.223055e-03
9.335135e-03
9.451709e-03
9.573657e-03
9.702023e-03
9.838010e-03
9.982981e-03
1.013845e-02
1.030610e-02
1.048777e-02
1.068546e-02
1.090134e-02
1.113778e-02
1.139737e-02
1.168292e-02
1.199753e-02
1.234463e-02
1.272807e-02
1.315218e-02
1.362186e-02
1.414279e-02
1.472153e-02
1.536571e-02
1.608433e-02
8.485894e-03
8.585622e-03
8.686701e-03
8.789136e-03
8.893105e-03
8.998950e-03
9.107170e-03
9.218423e-03
9.333522e-03
9.453433e-03
9.579279e-03
9.712335e-03
9.854026e-03
1.000593e-02
1.016978e-02
1.034745e-02
1.054100e-02
1.075261e-02
1.098469e-02
1.123981e-02
1.152079e-02
1.183072e-02
1.217298e-02
1.255134e-02
1.297005e-02
1.343391e-02
1.394841e-02
1.451989e-02
1.515574e-02
1.586462e-02
8.355983e-03
8.460921e-03
8.565926e-03
8.671103e-03
8.776733e-03
8.883264e-03
8.991300e-03
9.101594e-03
9.215055e-03
9.332736e-03
9.455843e-03
9.585725e-03
9.723880e-03
9.871952e-03
1.003173e-02
1.020514e-02
1.039428e-02
1.060139e-02
1.082888e-02
1.107935e-02
1.135561e-02
1.166073e-02
1.199805e-02
1.237129e-02
1.278459e-02
1.324262e-02
1.375071e-02
1.431498e-02
1.494255e-02
1.564174e-02
8.226675e-03
8.336776e-03
8.445655e-03
8.553509e-03
8.660720e-03
8.767832e-03
8.875548e-03
8.984720e-03
9.096348e-03
9.211576e-03
9.331693e-03
9.458130e-03
9.592460e-03
9.736397e-03
9.891795e-03
1.006065e-02
1.024509e-02
1.044741e-02
1.067005e-02
1.091564e-02
1.118698e-02
1.148711e-02
1.181937e-02
1.218738e-02
1.259520e-02
1.304737e-02
1.354905e-02
1.410613e-02
1.472546e-02
1.541500e-02
8.098303e-03
8.213490e-03
8.326158e-03
8.436594e-03
8.545269e-03
8.652824e-03
8.760057e-03
8.867913e-03
8.977485e-03
9.090007e-03
9.206855e-03
9.329544e-03
9.459728e-03
9.599196e-03
9.749874e-03
9.913821e-03
1.009323e-02
1.029044e-02
1.050794e-02
1.074835e-02
1.101452e-02
1.130946e-02
1.163647e-02
1.199911e-02
1.240135e-02
1.284758e-02
1.334280e-02
1.389267e-02
1.450375e-02
1.518368e-02
7.971205e-03
8.091377e-03
8.207725e-03
8.320619e-03
8.430618e-03
8.538452e-03
8.645011e-03
8.751332e-03
8.858598e-03
8.968134e-03
9.081405e-03
9.200013e-03
9.325696e-03
9.460325e-03
9.605903e-03
9.764561e-03
9.938561e-03
1.013029e-02
1.034228e-02
1.057721e-02
1.083790e-02
1.112738e-02
1.144890e-02
1.180598e-02
1.220247e-02
1.264265e-02
1.313131e-02
1.367392e-02
1.427674e-02
1.494707e-02
7.845731e-03
7.970768e-03
8.090667e-03
8.205876e-03
8.317037e-03
8.424966e-03
8.530639e-03
8.635183e-03
8.739871e-03
8.846116e-03
8.955475e-03
9.069639e-03
9.190433e-03
9.319817e-03
9.459876e-03
9.612820e-03
9.780981e-03
9.966814e-03
1.017290e-02
1.040194e-02
1.065680e-02
1.094050e-02
1.125624e-02
1.160750e-02
1.199803e-02
1.243198e-02
1.291397e-02
1.344922e-02
1.404373e-02
1.470444e-02
7.722245e-03
7.852016e-03
7.975324e-03
8.092691e-03
8.204838e-03
8.312662e-03
8.417221e-03
8.519728e-03
8.621544e-03
8.724172e-03
8.829259e-03
8.938587e-03
9.054074e-03
9.177770e-03
9.311850e-03
9.458607e-03
9.620454e-03
9.799917e-03
9.999632e-03
1.022235e-02
1.047096e-02
1.074848e-02
1.105810e-02
1.140322e-02
1.178752e-02
1.221501e-02
1.269014e-02
1.321789e-02
1.380400e-02
1.445506e-02
7.601133e-03
7.735498e-03
7.862065e-03
7.981426e-03
8.094375e-03
8.201883e-03
8.305089e-03
8.405287e-03
8.503922e-03
8.602588e-03
8.703019e-03
8.807094e-03
8.916824e-03
9.034354e-03
9.161952e-03
9.302004e-03
9.457010e-03
9.629573e-03
9.822396e-03
1.003829e-02
1.028016e-02
1.055104e-02
1.085410e-02
1.119271e-02
1.157045e-02
1.199119e-02
1.245921e-02
1.297929e-02
1.355687e-02
1.419821e-02
7.482804e-03
7.621622e-03
7.751297e-03
7.872486e-03
7.986050e-03
8.093030e-03
8.194637e-03
8.292245e-03
8.387381e-03
8.481723e-03
8.577098e-03
8.675477e-03
8.778969e-03
8.889818e-03
9.010391e-03
9.143173e-03
9.290756e-03
9.455828e-03
9.641172e-03
9.849652e-03
1.008422e-02
1.034794e-02
1.064395e-02
1.097559e-02
1.134634e-02
1.175997e-02
1.222059e-02
1.273276e-02
1.330163e-02
1.393315e-02
7.367702e-03
7.510832e-03
7.643468e-03
7.766324e-03
7.880319e-03
7.986560e-03
8.086325e-03
8.181060e-03
8.272370e-03
8.362018e-03
8.451919e-03
8.544139e-03
8.640886e-03
8.744505e-03
8.857468e-03
8.982364e-03
9.121885e-03
9.278816e-03
9.456021e-03
9.656438e-03
9.883072e-03
1.013900e-02
1.042739e-02
1.075150e-02
1.111479e-02
1.152088e-02
1.197372e-02
1.247767e-02
1.303762e-02
1.365917e-02
7.256304e-03
7.403615e-03
7.539074e-03
7.663445e-03
7.777700e-03
7.883000e-03
7.980685e-03
8.072267e-03
8.159425e-03
8.244002e-03
8.328001e-03
8.413581e-03
8.503050e-03
8.598859e-03
8.703587e-03
8.819933e-03
8.950697e-03
9.098766e-03
9.267102e-03
9.458721e-03
9.676692e-03
9.924130e-03
1.020421e-02
1.052018e-02
1.087541e-02
1.127344e-02
1.171806e-02
1.221342e-02
1.276416e-02
1.337556e-02
7.149132e-03
7.300504e-03
7.438664e-03
7.564416e-03
7.678775e-03
7.782947e-03
7.878327e-03
7.966486e-03
8.049171e-03
8.128301e-03
8.205964e-03
8.284411e-03
8.366052e-03
8.453440e-03
8.549270e-03
8.656353e-03
8.777605e-03
8.916026e-03
9.074682e-03
9.256683e-03
9.465172e-03
9.703317e-03
9.974313e-03
1.028140e-02
1.062790e-02
1.101725e-02
1.145311e-02
1.193943e-02
1.248061e-02
1.308163e-02
7.046755e-03
7.202086e-03
7.342847e-03
7.469870e-03
7.584200e-03
7.687081e-03
7.779950e-03
7.864431e-03
7.942333e-03
8.015648e-03
8.086542e-03
8.157357e-03
8.230600e-03
8.308936e-03
8.395168e-03
8.492230e-03
8.603158e-03
8.731075e-03
8.879160e-03
9.050630e-03
9.248718e-03
9.476658e-03
9.737685e-03
1.003504e-02
1.037202e-02
1.075197e-02
1.117844e-02
1.165519e-02
1.218639e-02
1.277672e-02
6.949795e-03
7.109008e-03
7.252299e-03
7.380512e-03
7.494710e-03
7.596163e-03
7.686342e-03
7.766915e-03
7.839745e-03
7.906887e-03
7.970586e-03
8.033270e-03
8.097543e-03
8.166172e-03
8.242080e-03
8.328321e-03
8.428058e-03
8.544544e-03
8.681084e-03
8.841015e-03
9.027675e-03
9.244383e-03
9.494432e-03
9.781090e-03
1.010762e-02
1.047735e-02
1.089367e-02
1.136022e-02
1.188093e-02
1.246023e-02
6.858938e-03
7.021985e-03
7.167768e-03
7.297127e-03
7.411128e-03
7.511053e-03
7.598395e-03
7.674857e-03
7.742350e-03
7.802987e-03
7.859081e-03
7.913143e-03
7.967869e-03
8.026132e-03
8.090966e-03
8.165549e-03
8.253178e-03
8.357238e-03
8.481176e-03
8.628460e-03
8.802551e-03
9.006875e-03
9.244803e-03
9.519652e-03
9.834696e-03
1.019321e-02
1.059853e-02
1.105413e-02
1.156376e-02
1.213159e-02
6.774932e-03
6.941804e-03
7.090082e-03
7.220586e-03
7.334367e-03
7.432704e-03
7.517103e-03
7.589290e-03
7.651214e-03
7.705039e-03
7.753143e-03
7.798112e-03
7.842727e-03
7.889962e-03
7.942961e-03
8.005025e-03
8.079582e-03
8.170162e-03
8.280358e-03
8.413785e-03
8.574048e-03
8.764700e-03
8.989219e-03
9.250996e-03
9.553345e-03
9.899531e-03
1.029283e-02
1.073662e-02
1.123447e-02
1.179033e-02
6.698600e-03
6.869330e-03
7.020157e-03
7.151854e-03
7.265441e-03
7.362178e-03
7.443571e-03
7.511359e-03
7.567522e-03
7.614268e-03
7.654030e-03
7.689461e-03
7.723424e-03
7.758983e-03
7.799388e-03
7.848056e-03
7.908549e-03
7.984541e-03
8.079778e-03
8.198041e-03
8.343094e-03
8.518644e-03
8.728308e-03
8.975585e-03
9.263861e-03
9.596432e-03
9.976552e-03
1.040752e-02
1.089278e-02
1.143607e-02
6.630843e-03
6.805515e-03
6.958999e-03
7.091994e-03
7.205466e-03
7.300644e-03
7.379016e-03
7.442330e-03
7.492585e-03
7.532027e-03
7.563136e-03
7.588627e-03
7.611431e-03
7.634696e-03
7.661766e-03
7.696168e-03
7.741588e-03
7.801844e-03
7.880844e-03
7.982540e-03
8.110880e-03
8.269753e-03
8.462946e-03
8.694110e-03
8.966748e-03
9.284228e-03
9.649829e-03
1.006682e-02
1.053854e-02
1.106860e-02
6.572641e-03
6.751405e-03
6.907716e-03
7.042174e-03
7.155669e-03
7.249379e-03
7.324768e-03
7.383580e-03
7.427830e-03
7.459792e-03
7.481990e-03
7.497188e-03
7.508379e-03
7.518779e-03
7.531813e-03
7.551103e-03
7.580451e-03
7.623810e-03
7.685246e-03
7.768894e-03
7.878904e-03
8.019375e-03
8.194308e-03
8.407549e-03
8.662774e-03
8.963480e-03
9.313024e-03
9.714694e-03
1.017181e-02
1.068784e-02
6.525066e-03
6.708140e-03
6.867520e-03
7.003671e-03
7.117385e-03
7.209774e-03
7.282266e-03
7.336597e-03
7.374792e-03
7.399151e-03
7.412236e-03
7.416852e-03
7.416041e-03
7.413072e-03
7.411434e-03
7.414824e-03
7.427140e-03
7.452454e-03
7.494984e-03
7.559050e-03
7.649015e-03
7.769221e-03
7.923923e-03
8.117223e-03
8.353031e-03
8.635046e-03
8.966775e-03
9.351596e-03
9.792851e-03
1.029398e-02
6.489279e-03
6.676968e-03
6.839734e-03
6.977877e-03
7.092063e-03
7.183326e-03
7.253051e-03
7.302963e-03
7.335098e-03
7.351782e-03
7.355611e-03
7.349426e-03
7.336306e-03
7.319555e-03
7.302702e-03
7.289494e-03
7.283897e-03
7.290077e-03
7.312385e-03
7.355316e-03
7.423455e-03
7.521413e-03
7.653744e-03
7.824870e-03
8.039015e-03
8.300165e-03
8.612072e-03
8.978291e-03
9.402274e-03
9.887496e-03
6.466540e-03
6.659245e-03
6.825800e-03
6.966300e-03
7.081265e-03
7.171636e-03
7.238755e-03
7.284338e-03
7.310440e-03
7.319420e-03
7.313907e-03
7.296776e-03
7.271132e-03
7.240297e-03
7.207812e-03
7.177441e-03
7.153178e-03
7.139249e-03
7.140101e-03
7.160383e-03
7.204900e-03
7.278545e-03
7.386218e-03
7.532730e-03
7.722711e-03
7.960549e-03
8.250351e-03
8.595969e-03
9.001071e-03
9.469263e-03
6.458213e-03
6.656448e-03
6.827285e-03
6.970573e-03
7.086663e-03
7.176398e-03
7.241082e-03
7.282434e-03
7.302542e-03
7.303811e-03
7.288916e-03
7.260768e-03
7.222487e-03
7.177395e-03
7.129016e-03
7.081092e-03
7.037598e-03
7.002764e-03
6.981087e-03
6.977328e-03
6.996484e-03
7.043736e-03
7.124364e-03
7.243641e-03
7.406713e-03
7.618500e-03
7.883616e-03
8.206360e-03
8.590756e-03
9.040671e-03
6.465773e-03
6.670187e-03
6.845893e-03
6.992456e-03
7.110040e-03
7.199390e-03
7.261786e-03
7.298975e-03
7.313106e-03
7.306656e-03
7.282364e-03
7.243185e-03
7.192254e-03
7.132876e-03
7.068529e-03
7.002883e-03
6.939841e-03
6.883570e-03
6.838546e-03
6.809575e-03
6.801799e-03
6.820664e-03
6.871847e-03
6.961149e-03
7.094350e-03
7.277060e-03
7.514595e-03
7.811893e-03
8.173525e-03
8.603780e-03
6.490822e-03
6.702216e-03
6.883478e-03
7.033847e-03
7.153287e-03
7.242457e-03
7.302642e-03
7.335660e-03
7.343762e-03
7.329537e-03
7.295821e-03
7.245633e-03
7.182128e-03
7.108582e-03
7.028396e-03
6.945126e-03
6.862532e-03
6.784642e-03
6.715819e-03
6.660823e-03
6.624856e-03
6.613571e-03
6.633030e-03
6.689607e-03
6.789833e-03
6.940194e-03
7.146938e-03
7.415907e-03
7.752467e-03
8.161545e-03
6.535109e-03
6.754466e-03
6.942070e-03
7.096794e-03
7.218402e-03
7.307496e-03
7.365414e-03
7.394105e-03
7.395990e-03
7.373827e-03
7.330598e-03
7.269418e-03
7.193480e-03
7.106023e-03
7.010346e-03
6.909844e-03
6.808068e-03
6.708816e-03
6.616231e-03
6.534906e-03
6.469983e-03
6.427217e-03
6.412993e-03
6.434265e-03
6.498411e-03
6.612991e-03
6.785467e-03
7.022917e-03
7.331839e-03
7.718090e-03
6.600562e-03
6.829074e-03
7.023899e-03
7.183515e-03
7.307494e-03
7.396434e-03
7.451806e-03
7.475780e-03
7.471036e-03
7.440587e-03
7.387627e-03
7.315416e-03
7.227205e-03
7.126208e-03
7.015602e-03
6.898575e-03
6.778406e-03
6.658568e-03
6.542865e-03
6.435581e-03
6.341639e-03
6.266742e-03
6.217471e-03
6.201300e-03
6.226500e-03
6.301890e-03
6.436464e-03
6.638956e-03
6.917438e-03
7.279093e-03
6.689339e-03
6.928442e-03
7.131455e-03
7.296429e-03
7.422790e-03
7.511213e-03
7.563420e-03
7.581933e-03
7.569817e-03
7.530450e-03
7.467326e-03
7.383914e-03
7.283564e-03
7.169473e-03
7.044687e-03
6.912156e-03
6.774823e-03
6.635750e-03
6.498282e-03
6.366240e-03
6.244142e-03
6.137431e-03
6.052685e-03
5.997748e-03
5.981745e-03
6.014876e-03
6.107995e-03
6.271980e-03
6.517055e-03
6.852262e-03
6.803905e-03
7.055319e-03
7.267545e-03
7.438204e-03
7.566643e-03
7.653756e-03
7.701690e-03
7.713498e-03
7.692801e-03
7.643484e-03
7.569453e-03
7.474461e-03
7.362007e-03
7.235290e-03
7.097225e-03
6.950497e-03
6.797667e-03
6.641311e-03
6.484205e-03
6.329558e-03
6.181286e-03
6.044336e-03
5.925010e-03
5.831273e-03
5.772932e-03
5.761577e-03
5.810181e-03
5.932300e-03
6.141013e-03
6.447918e-03
6.947139e-03
7.212916e-03
7.435403e-03
7.611813e-03
7.741550e-03
7.825940e-03
7.867806e-03
7.870984e-03
7.839874e-03
7.779046e-03
7.692947e-03
7.585705e-03
7.461015e-03
7.322104e-03
7.171756e-03
7.012380e-03
6.846120e-03
6.675013e-03
6.501182e-03
6.327098e-03
6.155897e-03
5.991781e-03
5.840471e-03
5.709705e-03
5.609654e-03
5.553128e-03
5.555320e-03
5.632935e-03
5.802689e-03
6.079605e-03
7.122503e-03
7.405074e-03
7.638825e-03
7.820624e-03
7.950165e-03
8.029537e-03
8.062602e-03
8.054326e-03
8.010171e-03
7.935606e-03
7.835765e-03
7.715233e-03
7.577947e-03
7.427180e-03
7.265586e-03
7.095288e-03
6.918000e-03
6.735191e-03
6.548285e-03
6.358931e-03
6.169349e-03
5.982782e-03
5.804069e-03
5.640322e-03
5.501635e-03
5.401643e-03
5.357609e-03
5.389639e-03
5.518808e-03
5.764525e-03
7.334280e-03
7.636515e-03
7.882360e-03
8.068500e-03
8.195299e-03
8.266122e-03
8.286400e-03
8.262691e-03
8.201874e-03
8.110559e-03
7.994706e-03
7.859425e-03
7.708916e-03
7.546496e-03
7.374678e-03
7.195294e-03
7.009627e-03
6.818578e-03
6.622871e-03
6.423306e-03
6.221119e-03
6.018454e-03
5.819020e-03
5.628925e-03
5.457678e-03
5.319162e-03
5.232230e-03
5.220264e-03
5.309101e-03
5.523400e-03
7.587924e-03
7.913183e-03
8.171576e-03
8.359914e-03
8.479882e-03
8.536912e-03
8.538764e-03
8.494201e-03
8.411946e-03
8.299994e-03
8.165237e-03
8.013331e-03
7.848711e-03
7.674695e-03
7.493627e-03
7.307031e-03
7.115772e-03
6.920218e-03
6.720433e-03
6.516415e-03
6.308430e-03
6.097485e-03
5.886013e-03
5.678828e-03
5.484364e-03
5.316083e-03
5.193651e-03
5.143091e-03
5.194825e-03
5.379173e-03
7.890588e-03
8.242766e-03
8.513409e-03
8.700066e-03
8.806837e-03
8.842459e-03
8.818110e-03
8.745546e-03
8.635796e-03
8.498441e-03
8.341328e-03
8.170583e-03
7.990771e-03
7.805111e-03
7.615709e-03
7.423758e-03
7.229720e-03
7.033492e-03
6.834577e-03
6.632288e-03
6.426033e-03
6.215761e-03
6.002620e-03
5.789969e-03
5.584781e-03
5.399411e-03
5.253369e-03
5.174190e-03
5.195927e-03
5.354170e-03
8.251924e-03
8.635443e-03
8.916615e-03
9.094921e-03
9.178760e-03
9.182115e-03
9.121108e-03
9.011434e-03
8.866856e-03
8.698596e-03
8.515313e-03
8.323380e-03
8.127263e-03
7.929909e-03
7.733065e-03
7.537550e-03
7.343448e-03
7.150275e-03
6.957121e-03
6.762808e-03
6.566114e-03
6.366137e-03
6.162892e-03
5.958278e-03
5.757549e-03
5.571320e-03
5.417843e-03
5.324616e-03
5.327595e-03
5.466274e-03
8.685367e-03
9.105021e-03
9.392331e-03
9.551049e-03
9.597216e-03
9.553074e-03
9.441739e-03
9.283839e-03
9.096073e-03
8.891059e-03
8.677838e-03
8.462584e-03
8.249294e-03
8.040365e-03
7.837024e-03
7.639647e-03
7.447970e-03
7.261246e-03
7.078350e-03
6.897888e-03
6.718348e-03
6.538347e-03
6.357103e-03
6.175262e-03
5.996267e-03
5.828411e-03
5.687433e-03
5.598819e-03
5.597978e-03
5.726010e-03
9.210152e-03
9.670654e-03
9.954597e-03
1.007496e-02
1.006127e-02
9.948721e-03
9.769887e-03
9.551017e-03
9.311374e-03
9.064165e-03
8.817958e-03
8.578007e-03
8.347306e-03
8.127343e-03
7.918618e-03
7.720987e-03
7.533874e-03
7.356402e-03
7.187472e-03
7.025825e-03
6.870109e-03
6.719015e-03
6.571556e-03
6.427634e-03
6.289080e-03
6.161430e-03
6.056489e-03
5.995153e-03
6.008778e-03
6.136841e-03
9.855313e-03
1.035945e-02
1.062065e-02
1.067107e-02
1.056462e-02
1.035590e-02
1.008936e-02
9.796386e-03
9.497244e-03
9.204045e-03
8.923501e-03
8.658949e-03
8.411716e-03
8.181979e-03
7.969303e-03
7.772952e-03
7.592076e-03
7.425814e-03
7.273349e-03
7.133941e-03
7.006948e-03
6.891865e-03
6.788409e-03
6.696732e-03
6.617877e-03
6.554753e-03
6.513820e-03
6.507739e-03
6.558581e-03
6.698614e-03
1.066484e-02
1.121082e-02
1.140927e-02
1.133683e-02
1.108984e-02
1.075070e-02
1.037543e-02
9.997542e-03
9.634704e-03
9.295146e-03
8.981847e-03
8.695074e-03
8.433820e-03
8.196605e-03
7.981893e-03
7.788322e-03
7.614819e-03
7.460671e-03
7.325568e-03
7.209648e-03
7.113533e-03
7.038355e-03
6.985747e-03
6.957756e-03
6.956586e-03
6.983987e-03
7.040812e-03
7.127800e-03
7.248040e-03
7.416117e-03
1.171758e-02
1.227874e-02
1.233506e-02
1.205150e-02
1.159912e-02
1.109250e-02
1.059262e-02
1.012618e-02
9.702235e-03
9.321516e-03
8.981249e-03
8.677656e-03
8.406951e-03
8.165828e-03
7.951624e-03
7.762381e-03
7.596868e-03
7.454607e-03
7.335936e-03
7.242096e-03
7.175372e-03
7.139257e-03
7.138565e-03
7.179435e-03
7.268509e-03
7.411212e-03
7.607212e-03
7.841719e-03
8.083219e-03
8.300116e-03
1.313129e-02
1.364758e-02
1.337917e-02
1.274844e-02
1.201838e-02
1.131929e-02
1.069455e-02
1.015017e-02
9.678302e-03
9.269093e-03
8.912744e-03
8.601135e-03
8.327766e-03
8.087674e-03
7.877241e-03
7.694044e-03
7.536772e-03
7.405213e-03
7.300337e-03
7.224474e-03
7.181615e-03
7.177852e-03
7.221941e-03
7.325962e-03
7.505109e-03
7.777396e-03
8.151855e-03
8.610353e-03
9.078799e-03
9.417282e-03
1.520658e-02
1.534315e-02
1.444932e-02
1.327486e-02
1.221976e-02
1.134870e-02
1.063032e-02
1.003954e-02
9.546072e-03
9.129077e-03
8.772496e-03
8.464766e-03
8.197461e-03
7.964555e-03
7.761879e-03
7.586787e-03
7.437982e-03
7.315482e-03
7.220714e-03
7.156780e-03
7.128911e-03
7.145215e-03
7.217843e-03
7.364686e-03
7.611734e-03
7.996405e-03
8.559186e-03
9.355546e-03
1.024953e-02
1.077854e-02
1.847134e-02
1.723940e-02
1.503920e-02
1.335497e-02
1.204424e-02
1.109775e-02
1.036124e-02
9.777232e-03
9.299910e-03
8.901791e-03
8.564063e-03
8.273949e-03
8.022575e-03
7.803798e-03
7.613488e-03
7.449104e-03
7.309488e-03
7.194812e-03
7.106688e-03
7.048452e-03
7.025691e-03
7.047122e-03
7.126098e-03
7.283060e-03
7.550469e-03
7.980050e-03
8.661379e-03
9.752079e-03
1.126940e-02
1.311708e-02
2.225779e-02
1.828772e-02
1.430411e-02
1.261574e-02
1.139006e-02
1.053750e-02
9.887117e-03
9.372580e-03
8.951961e-03
8.599907e-03
8.299899e-03
8.040836e-03
7.815112e-03
7.617516e-03
7.444589e-03
7.294254e-03
7.165641e-03
7.059047e-03
6.976035e-03
6.919684e-03
6.895041e-03
6.909878e-03
6.975982e-03
7.111358e-03
7.344624e-03
7.722109e-03
8.337873e-03
9.332075e-03
1.140955e-02
1.580789e-02
SCALARS DxRR double 1
LOOKUP_TABLE dxrr
1.503444e-08
1.442509e-08
1.380724e-08
1.319573e-08
1.259245e-08
1.199390e-08
1.139440e-08
1.078732e-08
1.016563e-08
9.522133e-09
8.849469e-09
8.140134e-09
7.386385e-09
6.580148e-09
5.712887e-09
4.775462e-09
3.757964e-09
2.649521e-09
1.438091e-09
1.102125e-10
-1.349268e-09
-2.957504e-09
-4.733991e-09
-6.700925e-09
-8.883560e-09
-1.131047e-08
-1.401352e-08
-1.702712e-08
-2.038549e-08
-2.411484e-08
1.519072e-08
1.461597e-08
1.404097e-08
1.346341e-08
1.288173e-08
1.229361e-08
1.169539e-08
1.108242e-08
1.044931e-08
9.790193e-09
9.098777e-09
8.368402e-09
7.592012e-09
6.762104e-09
5.870636e-09
4.908922e-09
3.867501e-09
2.735983e-09
1.502873e-09
1.553778e-10
-1.320813e-09
-2.941768e-09
-4.725561e-09
-6.692534e-09
-8.865534e-09
-1.127012e-08
-1.393472e-08
-1.689091e-08
-2.017474e-08
-2.382985e-08
1.533460e-08
1.477310e-08
1.422096e-08
1.366652e-08
1.310356e-08
1.252788e-08
1.193570e-08
1.132297e-08
1.068518e-08
1.001736e-08
9.314058e-09
8.569366e-09
7.776900e-09
6.929762e-09
6.020473e-09
5.040890e-09
3.982103e-09
2.834303e-09
1.586648e-09
2.270912e-10
-1.257796e-09
-2.883030e-09
-4.665439e-09
-6.623920e-09
-8.779743e-09
-1.115698e-08
-1.378325e-08
-1.669112e-08
-1.992104e-08
-2.352727e-08
1.546278e-08
1.490808e-08
1.436888e-08
1.382959e-08
1.328082e-08
1.271636e-08
1.213149e-08
1.152196e-08
1.088352e-08
1.021165e-08
9.501458e-09
8.747614e-09
7.944320e-09
7.085246e-09
6.163475e-09
5.171428e-09
4.100775e-09
2.942324e-09
1.685898e-09
3.201882e-10
-1.167419e-09
-2.791040e-09
-4.566538e-09
-6.511841e-09
-8.647383e-09
-1.099679e-08
-1.358798e-08
-1.645513e-08
-1.964182e-08
-2.320629e-08
1.557487e-08
1.502711e-08
1.449658e-08
1.396751e-08
1.342909e-08
1.287375e-08
1.229581e-08
1.169055e-08
1.105360e-08
1.038058e-08
9.666927e-09
8.907712e-09
8.097599e-09
7.230751e-09
6.300768e-09
5.300610e-09
4.222508e-09
3.057864e-09
1.797130e-09
4.296655e-10
-1.056441e-09
-2.674590e-09
-4.439951e-09
-6.369859e-09
-8.484368e-09
-1.080709e-08
-1.336647e-08
-1.619771e-08
-1.934549e-08
-2.286769e-08
1.567179e-08
1.513319e-08
1.461041e-08
1.408917e-08
1.355861e-08
1.301054e-08
1.243864e-08
1.183774e-08
1.120324e-08
1.053075e-08
9.815857e-09
9.053900e-09
8.239889e-09
7.368395e-09
6.433467e-09
5.428548e-09
4.346384e-09
3.178918e-09
1.917165e-09
5.510624e-10
-9.307206e-10
-2.541027e-09
-4.294537e-09
-6.208212e-09
-8.301918e-09
-1.059931e-08
-1.312908e-08
-1.592662e-08
-1.903614e-08
-2.251301e-08
1.575507e-08
1.522825e-08
1.471398e-08
1.419996e-08
1.367601e-08
1.313397e-08
1.256727e-08
1.197045e-08
1.133873e-08
1.066767e-08
9.952887e-09
9.189919e-09
8.374033e-09
7.500126e-09
6.562627e-09
5.555401e-09
4.471645e-09
3.303778e-09
2.043304e-09
6.806532e-10
-7.950274e-10
-2.396140e-09
-4.136989e-09
-6.034253e-09
-8.107619e-09
-1.038064e-08
-1.288184e-08
-1.564608e-08
-1.871614e-08
-2.214414e-08
1.582648e-08
1.531391e-08
1.480959e-08
1.430319e-08
1.378556e-08
1.324898e-08
1.268693e-08
1.209390e-08
1.146499e-08
1.079575e-08
1.008185e-08
9.318941e-09
8.502493e-09
7.627672e-09
6.689226e-09
5.681380e-09
4.597722e-09
3.431083e-09
2.173391e-09
8.154973e-10
-6.530467e-10
-2.244269e-09
-3.972142e-09
-5.853056e-09
-7.906433e-09
-1.015550e-08
-1.262825e-08
-1.535853e-08
-1.838717e-08
-2.176303e-08
1.588786e-08
1.539165e-08
1.489894e-08
1.440109e-08
1.389013e-08
1.335894e-08
1.280133e-08
1.221188e-08
1.158574e-08
1.091848e-08
1.020583e-08
9.443573e-09
8.627340e-09
7.752525e-09
6.814148e-09
5.806743e-09
4.724240e-09
3.559827e-09
2.305805e-09
9.533947e-10
-5.074889e-10
-2.088524e-09
-3.803348e-09
-5.668008e-09
-7.701535e-09
-9.926629e-09
-1.237046e-08
-1.506556e-08
-1.805068e-08
-2.137157e-08
1.594104e-08
1.546297e-08
1.498343e-08
1.449531e-08
1.399170e-08
1.346621e-08
1.291309e-08
1.232717e-08
1.170376e-08
1.103850e-08
1.032726e-08
9.565917e-09
8.750283e-09
7.875953e-09
6.938187e-09
5.931794e-09
4.851003e-09
3.689328e-09
2.439401e-09
1.092787e-09
-3.602521e-10
-1.931043e-09
-3.632850e-09
-5.481304e-09
-7.494922e-09
-9.695705e-09
-1.210982e-08
-1.476834e-08
-1.770793e-08
-2.097153e-08
1.598782e-08
1.552929e-08
1.506438e-08
1.458717e-08
1.409176e-08
1.357249e-08
1.302412e-08
1.244182e-08
1.182113e-08
1.115786e-08
1.044802e-08
9.687644e-09
8.872717e-09
7.999025e-09
7.062055e-09
6.056868e-09
4.977973e-09
3.819179e-09
2.573437e-09
1.232641e-09
-2.125954e-10
-1.773224e-09
-3.462090e-09
-5.294332e-09
-7.287844e-09
-9.463808e-09
-1.184728e-08
-1.446782e-08
-1.736010e-08
-2.056453e-08
1.602989e-08
1.559206e-08
1.514300e-08
1.467784e-08
1.419152e-08
1.367909e-08
1.313585e-08
1.255735e-08
1.193942e-08
1.127810e-08
1.056958e-08
9.810087e-09
8.995778e-09
8.122644e-09
7.186393e-09
6.182331e-09
5.105232e-09
3.949196e-09
2.707484e-09
1.372327e-09
-6.529826e-11
-1.615935e-09
-3.291961e-09
-5.107948e-09
-7.081090e-09
-9.231669e-09
-1.158357e-08
-1.416486e-08
-1.700831e-08
-2.015207e-08
1.606890e-08
1.565266e-08
1.522052e-08
1.476840e-08
1.429203e-08
1.378710e-08
1.324942e-08
1.267495e-08
1.205985e-08
1.140044e-08
1.069312e-08
9.934316e-09
9.120404e-09
8.247582e-09
7.311785e-09
6.308564e-09
5.232961e-09
4.079366e-09
2.841357e-09
1.511514e-09
8.120293e-11
-1.459677e-09
-3.122986e-09
-4.922677e-09
-6.875180e-09
-8.999826e-09
-1.131932e-08
-1.386025e-08
-1.665362e-08
-1.973551e-08
1.610642e-08
1.571248e-08
1.529812e-08
1.485993e-08
1.439429e-08
1.389747e-08
1.336577e-08
1.279559e-08
1.218341e-08
1.152585e-08
1.081956e-08
1.006121e-08
9.247382e-09
8.374511e-09
7.438769e-09
6.435962e-09
5.361407e-09
4.209795e-09
2.975037e-09
1.650080e-09
2.267058e-10
-1.304709e-09
-2.955464e-09
-4.738847e-09
-6.670482e-09
-8.768724e-09
-1.105509e-08
-1.355475e-08
-1.629704e-08
-1.931612e-08
1.614395e-08
1.577287e-08
1.537699e-08
1.495347e-08
1.449923e-08
1.401108e-08
1.348578e-08
1.292011e-08
1.231094e-08
1.165516e-08
1.094972e-08
1.019152e-08
9.377395e-09
8.504031e-09
7.567849e-09
6.564924e-09
5.490864e-09
4.340677e-09
3.108622e-09
1.788041e-09
3.711575e-10
-1.151140e-09
-2.789556e-09
-4.556677e-09
-6.467293e-09
-8.538767e-09
-1.079144e-08
-1.324911e-08
-1.593954e-08
-1.889510e-08
1.618294e-08
1.583516e-08
1.545832e-08
1.505007e-08
1.460782e-08
1.412882e-08
1.361026e-08
1.304931e-08
1.244319e-08
1.178911e-08
1.108428e-08
1.032590e-08
9.511056e-09
8.636692e-09
7.699504e-09
6.695854e-09
5.621655e-09
4.472254e-09
3.242282e-09
1.925496e-09
5.145928e-10
-9.989988e-10
-2.625358e-09
-4.376340e-09
-6.265885e-09
-8.310356e-09
-1.052894e-08
-1.294410e-08
-1.558208e-08
-1.847358e-08
1.622481e-08
1.590064e-08
1.554329e-08
1.515081e-08
1.472100e-08
1.425154e-08
1.374001e-08
1.318394e-08
1.258088e-08
1.192837e-08
1.122391e-08
1.046497e-08
9.648933e-09
8.773013e-09
7.834197e-09
6.829150e-09
5.754117e-09
4.604799e-09
3.376223e-09
2.062588e-09
6.570884e-10
-8.482785e-10
-2.462941e-09
-4.198003e-09
-6.066537e-09
-8.083910e-09
-1.026816e-08
-1.264046e-08
-1.522559e-08
-1.805264e-08
1.627092e-08
1.597060e-08
1.563308e-08
1.525674e-08
1.483975e-08
1.438014e-08
1.387584e-08
1.332474e-08
1.272472e-08
1.207360e-08
1.136921e-08
1.060931e-08
9.791567e-09
8.913489e-09
7.972373e-09
6.965209e-09
5.888588e-09
4.738592e-09
3.510665e-09
2.199472e-09
7.987318e-10
-6.989680e-10
-2.302381e-09
-4.021844e-09
-5.869552e-09
-7.859871e-09
-1.000971e-08
-1.233896e-08
-1.487100e-08
-1.763335e-08
1.632261e-08
1.604631e-08
1.572887e-08
1.536896e-08
1.496506e-08
1.451551e-08
1.401859e-08
1.347249e-08
1.287540e-08
1.222547e-08
1.152082e-08
1.075950e-08
9.939488e-09
9.058606e-09
8.114470e-09
7.104415e-09
6.025401e-09
4.873908e-09
3.645824e-09
2.336299e-09
9.395994e-10
-5.510736e-10
-2.143781e-09
-3.848076e-09
-5.675267e-09
-7.638721e-09
-9.754226e-09
-1.204041e-08
-1.451927e-08
-1.721677e-08
1.638118e-08
1.612901e-08
1.583184e-08
1.548856e-08
1.509794e-08
1.465860e-08
1.416911e-08
1.362797e-08
1.303367e-08
1.238465e-08
1.167934e-08
1.091611e-08
1.009322e-08
9.208839e-09
8.260915e-09
7.247145e-09
6.164875e-09
5.011010e-09
3.781896e-09
2.473196e-09
1.079741e-09
-4.046327e-10
-1.987278e-09
-3.676949e-09
-5.484062e-09
-7.420979e-09
-9.502368e-09
-1.174561e-08
-1.417132e-08
-1.680395e-08
1.644791e-08
1.621995e-08
1.594316e-08
1.561665e-08
1.523941e-08
1.481035e-08
1.432828e-08
1.379199e-08
1.320026e-08
1.255183e-08
1.184542e-08
1.107970e-08
1.025329e-08
9.364658e-09
8.412122e-09
7.393755e-09
6.307311e-09
5.150134e-09
3.919053e-09
2.610260e-09
1.219172e-09
-2.597234e-10
-1.833052e-09
-3.508762e-09
-5.296360e-09
-7.207206e-09
-9.254844e-09
-1.145541e-08
-1.382814e-08
-1.639597e-08
1.652408e-08
1.632036e-08
1.606401e-08
1.575434e-08
1.539054e-08
1.497174e-08
1.449700e-08
1.396540e-08
1.337595e-08
1.272771e-08
1.201968e-08
1.125087e-08
1.042021e-08
9.526520e-09
8.568489e-09
7.544584e-09
6.452982e-09
5.291487e-09
4.057428e-09
2.747545e-09
1.357861e-09
-1.164708e-10
-1.681336e-09
-3.343859e-09
-5.112635e-09
-6.998008e-09
-9.012395e-09
-1.117068e-08
-1.349073e-08
-1.599393e-08
1.661094e-08
1.643146e-08
1.619558e-08
1.590276e-08
1.555238e-08
1.514376e-08
1.467622e-08
1.414903e-08
1.356152e-08
1.291300e-08
1.220279e-08
1.143019e-08
1.059449e-08
9.694870e-09
8.730394e-09
7.699940e-09
6.602127e-09
5.435235e-09
4.197111e-09
2.885062e-09
1.495728e-09
2.494813e-11
-1.532411e-09
-3.182639e-09
-4.933408e-09
-6.794036e-09
-8.775806e-09
-1.089235e-08
-1.316011e-08
-1.559896e-08
1.670973e-08
1.655447e-08
1.633905e-08
1.606305e-08
1.572602e-08
1.532745e-08
1.486686e-08
1.434379e-08
1.375778e-08
1.310843e-08
1.239537e-08
1.161824e-08
1.077664e-08
9.870131e-09
8.898184e-09
7.860097e-09
6.754944e-09
5.581500e-09
4.338144e-09
3.022764e-09
1.632638e-09
1.642995e-10
-1.386617e-09
-3.025556e-09
-4.759253e-09
-6.595991e-09
-8.545906e-09
-1.062135e-08
-1.283737e-08
-1.521225e-08
1.682167e-08
1.669061e-08
1.649560e-08
1.623636e-08
1.591254e-08
1.552383e-08
1.506991e-08
1.455054e-08
1.396553e-08
1.331473e-08
1.259809e-08
1.181556e-08
1.096711e-08
1.005269e-08
9.072168e-09
8.025281e-09
6.911579e-09
5.730344e-09
4.480505e-09
3.160546e-09
1.768392e-09
3.012881e-10
-1.244353e-09
-2.873118e-09
-4.590796e-09
-6.404623e-09
-8.323572e-09
-1.035871e-08
-1.252363e-08
-1.483502e-08
1.694800e-08
1.684108e-08
1.666643e-08
1.642383e-08
1.611307e-08
1.573394e-08
1.528633e-08
1.477019e-08
1.418557e-08
1.353262e-08
1.281156e-08
1.202270e-08
1.116636e-08
1.024290e-08
9.252601e-09
8.195660e-09
7.072114e-09
5.881765e-09
4.624106e-09
3.298230e-09
1.902723e-09
4.355511e-10
-1.106083e-09
-2.725897e-09
-4.428723e-09
-6.220735e-09
-8.109730e-09
-1.010546e-08
-1.222007e-08
-1.446859e-08
1.708993e-08
1.700709e-08
1.685272e-08
1.662663e-08
1.632870e-08
1.595884e-08
1.551711e-08
1.500364e-08
1.441872e-08
1.376279e-08
1.303637e-08
1.224013e-08
1.137477e-08
1.044104e-08
9.439670e-09
8.371329e-09
7.236552e-09
6.035679e-09
4.768777e-09
3.435560e-09
2.035286e-09
5.666523e-10
-9.723389e-10
-2.584527e-09
-4.273775e-09
-6.045185e-09
-7.905358e-09
-9.862720e-09
-1.192791e-08
-1.411429e-08
1.724867e-08
1.718987e-08
1.705567e-08
1.684593e-08
1.656056e-08
1.619959e-08
1.576320e-08
1.525174e-08
1.466574e-08
1.400590e-08
1.327308e-08
1.246829e-08
1.159264e-08
1.064731e-08
9.633474e-09
8.552288e-09
7.404802e-09
6.191905e-09
4.914253e-09
3.572188e-09
2.165650e-09
6.940736e-10
-8.437296e-10
-2.449713e-09
-4.126761e-09
-5.878890e-09
-7.711492e-09
-9.631639e-09
-1.164845e-08
-1.377357e-08
1.742543e-08
1.739063e-08
1.727650e-08
1.708290e-08
1.680978e-08
1.645723e-08
1.602559e-08
1.551537e-08
1.492736e-08
1.426255e-08
1.352214e-08
1.270752e-08
1.182020e-08
1.086181e-08
9.834000e-09
8.738421e-09
7.576654e-09
6.350149e-09
5.060158e-09
3.707661e-09
2.293284e-09
8.172074e-10
-7.209448e-10
-2.322233e-09
-3.988554e-09
-5.722828e-09
-7.529225e-09
-9.413440e-09
-1.138305e-08
-1.344792e-08
1.762144e-08
1.761058e-08
1.751642e-08
1.733873e-08
1.707748e-08
1.673281e-08
1.630519e-08
1.579533e-08
1.520426e-08
1.453327e-08
1.378394e-08
1.295805e-08
1.205754e-08
1.108451e-08
1.004110e-08
8.929473e-09
7.751762e-09
6.509982e-09
5.205989e-09
3.841406e-09
2.417549e-09
9.353461e-10
-6.047639e-10
-2.202944e-09
-3.860099e-09
-5.578044e-09
-7.359710e-09
-9.209401e-09
-1.113311e-08
-1.313892e-08
1.783789e-08
1.785098e-08
1.777666e-08
1.761462e-08
1.736478e-08
1.702736e-08
1.660291e-08
1.609237e-08
1.549701e-08
1.481848e-08
1.405873e-08
1.321996e-08
1.230459e-08
1.131519e-08
1.025444e-08
9.125015e-09
7.929609e-09
6.670815e-09
5.351095e-09
3.972716e-09
2.537684e-09
1.047674e-09
-4.960620e-10
-2.092788e-09
-3.742414e-09
-5.445645e-09
-7.204163e-09
-9.020862e-09
-1.090013e-08
-1.284822e-08
1.807601e-08
1.811305e-08
1.805845e-08
1.791175e-08
1.767281e-08
1.734187e-08
1.691960e-08
1.640715e-08
1.580610e-08
1.511845e-08
1.434658e-08
1.349315e-08
1.256107e-08
1.155345e-08
1.047348e-08
9.324410e-09
8.109481e-09
6.831872e-09
5.494652e-09
4.100728e-09
2.652792e-09
1.153255e-09
-3.958168e-10
-1.992796e-09
-3.636597e-09
-5.326809e-09
-7.063862e-09
-8.849225e-09
-1.068567e-08
-1.257757e-08
1.833704e-08
1.839808e-08
1.836307e-08
1.823135e-08
1.800267e-08
1.767728e-08
1.725601e-08
1.674022e-08
1.613184e-08
1.543327e-08
1.464735e-08
1.377727e-08
1.282647e-08
1.179861e-08
1.069744e-08
9.526773e-09
8.290428e-09
6.992163e-09
5.635645e-09
4.224412e-09
2.761827e-09
1.251030e-09
-3.051129e-10
-1.904088e-09
-3.543820e-09
-5.222783e-09
-6.940148e-09
-8.695954e-09
-1.049133e-08
-1.232876e-08
1.862222e-08
1.870735e-08
1.869179e-08
1.857461e-08
1.835542e-08
1.803450e-08
1.761281e-08
1.709199e-08
1.647435e-08
1.576278e-08
1.496063e-08
1.407167e-08
1.309994e-08
1.204966e-08
1.092519e-08
9.730922e-09
8.471230e-09
7.150453e-09
5.772843e-09
4.342550e-09
2.863588e-09
1.339807e-09
-2.251434e-10
-1.827876e-09
-3.465332e-09
-5.134878e-09
-6.834423e-09
-8.562569e-09
-1.031880e-08
-1.210369e-08
1.893283e-08
1.904219e-08
1.904593e-08
1.894275e-08
1.873213e-08
1.841433e-08
1.799050e-08
1.746263e-08
1.683348e-08
1.610650e-08
1.528565e-08
1.437534e-08
1.338024e-08
1.230523e-08
1.115527e-08
9.935325e-09
8.650347e-09
7.305227e-09
5.904776e-09
4.453725e-09
2.956709e-09
1.418263e-09
-1.572070e-10
-1.765456e-09
-3.402455e-09
-5.064466e-09
-6.748142e-09
-8.450647e-09
-1.016981e-08
-1.190430e-08
1.927020e-08
1.940400e-08
1.942683e-08
1.933701e-08
1.913377e-08
1.881744e-08
1.838940e-08
1.785206e-08
1.720875e-08
1.646356e-08
1.562119e-08
1.468676e-08
1.366567e-08
1.256347e-08
1.138574e-08
1.013805e-08
8.825881e-09
7.454660e-09
6.029715e-09
4.556310e-09
3.039663e-09
1.484949e-09
-1.026976e-10
-1.718197e-09
-3.356565e-09
-5.012970e-09
-6.682810e-09
-8.361814e-09
-1.004616e-08
-1.173261e-08
1.963571e-08
1.979422e-08
1.983591e-08
1.975859e-08
1.956129e-08
1.924438e-08
1.880958e-08
1.825985e-08
1.759922e-08
1.683259e-08
1.596548e-08
1.500387e-08
1.395393e-08
1.282195e-08
1.161415e-08
1.033667e-08
8.995525e-09
7.596590e-09
6.145659e-09
4.648474e-09
3.110767e-09
1.538307e-09
-6.308418e-11
-1.687522e-09
-3.329084e-09
-4.981850e-09
-6.639968e-09
-8.297735e-09
-9.949686e-09
-1.159069e-08
2.003081e-08
2.021439e-08
2.027462e-08
2.020871e-08
2.001548e-08
1.969543e-08
1.925075e-08
1.868510e-08
1.800341e-08
1.721154e-08
1.631605e-08
1.532385e-08
1.424202e-08
1.307758e-08
1.183744e-08
1.052826e-08
9.156518e-09
7.728486e-09
6.250331e-09
4.728181e-09
3.168207e-09
1.576701e-09
-3.987758e-11
-1.674873e-09
-3.321440e-09
-4.972575e-09
-6.621175e-09
-8.260104e-09
-9.882265e-09
-1.148066e-08
2.045708e-08
2.066616e-08
2.074449e-08
2.068858e-08
2.049703e-08
2.017062e-08
1.971217e-08
1.912631e-08
1.841907e-08
1.759757e-08
1.666955e-08
1.564303e-08
1.452605e-08
1.332648e-08
1.205182e-08
1.070925e-08
9.305601e-09
7.847437e-09
6.341179e-09
4.793224e-09
3.210077e-09
1.598464e-09
-3.457896e-11
-1.681663e-09
-3.335032e-09
-4.986597e-09
-6.627988e-09
-8.250631e-09
-9.845803e-09
-1.140467e-08
2.091624e-08
2.115136e-08
2.124715e-08
2.119935e-08
2.100641e-08
2.066955e-08
2.019251e-08
1.958118e-08
1.884307e-08
1.798680e-08
1.702155e-08
1.595663e-08
1.480115e-08
1.356380e-08
1.225269e-08
1.087540e-08
9.438980e-09
7.950144e-09
6.415402e-09
4.841267e-09
3.234440e-09
1.601971e-09
-4.860517e-11
-1.709204e-09
-3.371168e-09
-5.025297e-09
-6.661930e-09
-8.271023e-09
-9.842228e-09
-1.136491e-08
2.141025e-08
2.167201e-08
2.178435e-08
2.174213e-08
2.154379e-08
2.119127e-08
2.068961e-08
2.004640e-08
1.927104e-08
1.837403e-08
1.736628e-08
1.625858e-08
1.506119e-08
1.378362e-08
1.243452e-08
1.102171e-08
9.552300e-09
8.032930e-09
6.469993e-09
4.869917e-09
3.239419e-09
1.585739e-09
-8.318442e-11
-1.758613e-09
-3.430977e-09
-5.089929e-09
-6.724445e-09
-8.322960e-09
-9.873476e-09
-1.136360e-08
2.194131e-08
2.223039e-08
2.235794e-08
2.231792e-08
2.210895e-08
2.173410e-08
2.120027e-08
2.051733e-08
1.969711e-08
1.875246e-08
1.769634e-08
1.654123e-08
1.529861e-08
1.397877e-08
1.259074e-08
1.114239e-08
9.640635e-09
8.091775e-09
6.501811e-09
4.876823e-09
3.223324e-09
1.548567e-09
-1.392150e-10
-1.830673e-09
-3.515303e-09
-5.181526e-09
-6.816849e-09
-8.408073e-09
-9.941489e-09
-1.140296e-08
2.251203e-08
2.282914e-08
2.296995e-08
2.292754e-08
2.270106e-08
2.229533e-08
2.171985e-08
2.098756e-08
2.011344e-08
1.911322e-08
1.800232e-08
1.679505e-08
1.550417e-08
1.414063e-08
1.271363e-08
1.123078e-08
9.698501e-09
8.122380e-09
6.507682e-09
4.859818e-09
3.184815e-09
1.489720e-09
-2.170783e-10
-1.925664e-09
-3.624550e-09
-5.300794e-09
-6.940250e-09
-8.527905e-09
-1.004821e-08
-1.148527e-08
2.312553e-08
2.347134e-08
2.362259e-08
2.357155e-08
2.331848e-08
2.287084e-08
2.224182e-08
2.144845e-08
2.050974e-08
1.944497e-08
1.827238e-08
1.700832e-08
1.566673e-08
1.425903e-08
1.279425e-08
1.127939e-08
9.719904e-09
8.120259e-09
6.484543e-09
4.817099e-09
3.123115e-09
1.409160e-09
-3.163975e-10
-2.043127e-09
-3.758479e-09
-5.447948e-09
-7.095457e-09
-8.683875e-09
-1.019557e-08
-1.161283e-08
2.378561e-08
2.416067e-08
2.431823e-08
2.425001e-08
2.395830e-08
2.345455e-08
2.275706e-08
2.188836e-08
2.087256e-08
1.973323e-08
1.849183e-08
1.716677e-08
1.577301e-08
1.432208e-08
1.282241e-08
1.127987e-08
9.698424e-09
8.080870e-09
6.429613e-09
4.747438e-09
3.038266e-09
1.307835e-09
-4.357324e-10
-2.181565e-09
-3.915942e-09
-5.622514e-09
-7.282847e-09
-8.877224e-09
-1.038554e-08
-1.178803e-08
2.449701e-08
2.490153e-08
2.505938e-08
2.496225e-08
2.461587e-08
2.403763e-08
2.325302e-08
2.229180e-08
2.118452e-08
1.995981e-08
1.864260e-08
1.725327e-08
1.580743e-08
1.431617e-08
1.278672e-08
1.122316e-08
9.627345e-09
7.999786e-09
6.340598e-09
4.650435e-09
2.931421e-09
1.188021e-09
-5.722023e-10
-2.338057e-09
-4.094530e-09
-5.823038e-09
-7.502185e-09
-9.108946e-09
-1.062008e-08
-1.201343e-08
2.526571e-08
2.569932e-08
2.584862e-08
2.570631e-08
2.528383e-08
2.460738e-08
2.371243e-08
2.263828e-08
2.142336e-08
2.010205e-08
1.870283e-08
1.724765e-08
1.575207e-08
1.422602e-08
1.267468e-08
1.109962e-08
9.499844e-09
7.872887e-09
6.215905e-09
4.526766e-09
2.805161e-09
1.053708e-09
-7.210332e-10
-2.507771e-09
-4.290094e-09
-6.046698e-09
-7.752368e-09
-9.379695e-09
-1.090126e-08
-1.229180e-08
2.609943e-08
2.656064e-08
2.668838e-08
2.647820e-08
2.595086e-08
2.514559e-08
2.411173e-08
2.290083e-08
2.156079e-08
2.013215e-08
1.864653e-08
1.712658e-08
1.558682e-08
1.403489e-08
1.247301e-08
1.089932e-08
9.309222e-09
7.696562e-09
6.054837e-09
4.378408e-09
2.663788e-09
9.110049e-10
-8.750343e-10
-2.683343e-09
-4.496108e-09
-6.288738e-09
-8.031040e-09
-9.689624e-09
-1.123125e-08
-1.262635e-08
2.700824e-08
2.749362e-08
2.758044e-08
2.727045e-08
2.659951e-08
2.562617e-08
2.441874e-08
2.304430e-08
2.156143e-08
2.001661e-08
1.844350e-08
1.686394e-08
1.528983e-08
1.372519e-08
1.216810e-08
1.061242e-08
9.049181e-09
7.467884e-09
5.857705e-09
4.208759e-09
2.513528e-09
7.684947e-10
-1.024032e-09
-2.854121e-09
-4.702805e-09
-6.541661e-09
-8.334008e-09
-1.003815e-08
-1.161242e-08
-1.302091e-08
2.800555e-08
2.850826e-08
2.852500e-08
2.806978e-08
2.720298e-08
2.601168e-08
2.458982e-08
2.302327e-08
2.138171e-08
1.971611e-08
1.805984e-08
1.643155e-08
1.483843e-08
1.327924e-08
1.174676e-08
1.022969e-08
8.714114e-09
7.184702e-09
5.625781e-09
4.022543e-09
2.362515e-09
6.374471e-10
-1.154332e-09
-3.005250e-09
-4.895985e-09
-6.793992e-09
-8.654277e-09
-1.042348e-08
-1.204739e-08
-1.348034e-08
2.910945e-08
2.961665e-08
2.951863e-08
2.885293e-08
2.771983e-08
2.624841e-08
2.456618e-08
2.278017e-08
2.096953e-08
1.918616e-08
1.745924e-08
1.580079e-08
1.421071e-08
1.268071e-08
1.119719e-08
9.743131e-09
8.299381e-09
6.845588e-09
5.360988e-09
3.825362e-09
2.220389e-09
5.316725e-10
-1.248361e-09
-3.116683e-09
-5.055433e-09
-7.028436e-09
-8.980483e-09
-1.084183e-08
-1.253916e-08
-1.401111e-08
3.034501e-08
3.083308e-08
3.055047e-08
2.957939e-08
2.808579e-08
2.625954e-08
2.426979e-08
2.224390e-08
2.026500e-08
1.837922e-08
1.660562e-08
1.494522e-08
1.338776e-08
1.191634e-08
1.051029e-08
9.146739e-09
7.801517e-09
6.449554e-09
5.065200e-09
3.622706e-09
2.097222e-09
4.667006e-10
-1.284833e-09
-3.162279e-09
-5.152832e-09
-7.218948e-09
-9.294023e-09
-1.128566e-08
-1.309089e-08
-1.462199e-08
3.174702e-08
3.217209e-08
3.159278e-08
3.017782e-08
2.820074e-08
2.593645e-08
2.359986e-08
2.133062e-08
1.920386e-08
1.724914e-08
1.546760e-08
1.384446e-08
1.235684e-08
1.097830e-08
9.681137e-09
8.437258e-09
7.218325e-09
5.995497e-09
4.739060e-09
3.418226e-09
2.001450e-09
4.577753e-10
-1.240023e-09
-3.109549e-09
-5.149357e-09
-7.326452e-09
-9.564385e-09
-1.174078e-08
-1.370577e-08
-1.532613e-08
3.336848e-08
3.364698e-08
3.258613e-08
3.052333e-08
2.790986e-08
2.512934e-08
2.243266e-08
1.994921e-08
1.772517e-08
1.575886e-08
1.402511e-08
1.248940e-08
1.111513e-08
9.866716e-09
8.710588e-09
7.614916e-09
6.548832e-09
5.481367e-09
4.380314e-09
3.211174e-09
1.936480e-09
5.159883e-10
-1.091245e-09
-2.921260e-09
-4.993688e-09
-7.292279e-09
-9.739452e-09
-1.217749e-08
-1.438386e-08
-1.614074e-08
3.527721e-08
3.524435e-08
3.338874e-08
3.039301e-08
2.697885e-08
2.364318e-08
2.063043e-08
1.801540e-08
1.578536e-08
1.389203e-08
1.227799e-08
1.088818e-08
9.673700e-09
8.592174e-09
7.606649e-09
6.683984e-09
5.793104e-09
4.903189e-09
3.981833e-09
2.993142e-09
1.895865e-09
6.418756e-10
-8.240813e-10
-2.561359e-09
-4.622919e-09
-7.030768e-09
-9.731442e-09
-1.254056e-08
-1.512235e-08
-1.710200e-08
3.762502e-08
3.691820e-08
3.371883e-08
2.940038e-08
2.507203e-08
2.125179e-08
1.806978e-08
1.547936e-08
1.337972e-08
1.166780e-08
1.025551e-08
9.071868e-09
8.060762e-09
7.177456e-09
6.385332e-09
5.653038e-09
4.952012e-09
4.254208e-09
3.529803e-09
2.744679e-09
1.857507e-09
8.163150e-10
-4.450777e-10
-2.009497e-09
-3.972882e-09
-6.424625e-09
-9.387458e-09
-1.269517e-08
-1.587592e-08
-1.822630e-08
4.044680e-08
3.830817e-08
3.288068e-08
2.691576e-08
2.178096e-08
1.776214e-08
1.470190e-08
1.236885e-08
1.056894e-08
9.155670e-09
8.023838e-09
7.097915e-09
6.322948e-09
5.657841e-09
5.070592e-09
4.534825e-09
4.027105e-09
3.524619e-09
3.002873e-09
2.433042e-09
1.778546e-09
9.903185e-10
1.405533e-13
-1.288575e-09
-3.010355e-09
-5.341914e-09
-8.461678e-09
-1.238931e-08
-1.657594e-08
-1.971853e-08
4.449850e-08
3.864742e-08
2.953637e-08
2.203500e-08
1.678299e-08
1.316426e-08
1.064541e-08
8.837753e-09
7.500974e-09
6.483317e-09
5.687407e-09
5.048778e-09
4.523219e-09
4.079168e-09
3.692944e-09
3.345603e-09
3.020665e-09
2.702228e-09
2.373119e-09
2.012684e-09
1.593742e-09
1.077924e-09
4.080397e-10
-5.049681e-10
-1.803914e-09
-3.724911e-09
-6.629969e-09
-1.099978e-08
-1.667598e-08
-2.114672e-08
4.786191e-08
3.355256e-08
2.156957e-08
1.429240e-08
1.028728e-08
7.854969e-09
6.276658e-09
5.192367e-09
4.412148e-09
3.829446e-09
3.380273e-09
3.024351e-09
2.735019e-09
2.493777e-09
2.287079e-09
2.104316e-09
1.936420e-09
1.774744e-09
1.609956e-09
1.430711e-09
1.221739e-09
9.607643e-10
6.130133e-10
1.209712e-10
-6.169411e-10
-1.793577e-09
-3.796284e-09
-7.549719e-09
-1.464397e-08
-2.497369e-08
4.529294e-08
1.608927e-08
7.816684e-09
5.060891e-09
3.574323e-09
2.740797e-09
2.207524e-09
1.845517e-09
1.585951e-09
1.392504e-09
1.243722e-09
1.126298e-09
1.031502e-09
9.533301e-10
8.874276e-10
8.304306e-10
7.795120e-10
7.320230e-10
6.851442e-10
6.354672e-10
5.783898e-10
5.071309e-10
4.109081e-10
2.716008e-10
5.526372e-11
-3.010134e-10
-9.599942e-10
-2.218683e-09
-5.744691e-09
-1.939423e-08
SCALARS DxZZ double 1
LOOKUP_TABLE dxzz
-2.392196e-08
-2.391372e-08
-2.391657e-08
-2.393495e-08
-2.396962e-08
-2.401968e-08
-2.408367e-08
-2.415997e-08
-2.424690e-08
-2.434291e-08
-2.444649e-08
-2.455626e-08
-2.467093e-08
-2.478929e-08
-2.491016e-08
-2.503241e-08
-2.515490e-08
-2.527648e-08
-2.539592e-08
-2.551191e-08
-2.562303e-08
-2.572769e-08
-2.582413e-08
-2.591039e-08
-2.598431e-08
-2.604360e-08
-2.608600e-08
-2.610961e-08
-2.611392e-08
-2.610158e-08
-2.379048e-08
-2.376720e-08
-2.377200e-08
-2.379614e-08
-2.383478e-08
-2.388572e-08
-2.394743e-08
-2.401863e-08
-2.409814e-08
-2.418481e-08
-2.427754e-08
-2.437530e-08
-2.447707e-08
-2.458189e-08
-2.468881e-08
-2.479690e-08
-2.490525e-08
-2.501289e-08
-2.511885e-08
-2.522208e-08
-2.532146e-08
-2.541580e-08
-2.550377e-08
-2.558395e-08
-2.565476e-08
-2.571439e-08
-2.576060e-08
-2.578997e-08
-2.579573e-08
-2.576398e-08
-2.363935e-08
-2.358945e-08
-2.358629e-08
-2.361098e-08
-2.365333e-08
-2.370801e-08
-2.377206e-08
-2.384367e-08
-2.392158e-08
-2.400478e-08
-2.409242e-08
-2.418372e-08
-2.427795e-08
-2.437443e-08
-2.447247e-08
-2.457142e-08
-2.467063e-08
-2.476943e-08
-2.486712e-08
-2.496298e-08
-2.505623e-08
-2.514598e-08
-2.523126e-08
-2.531087e-08
-2.538325e-08
-2.544612e-08
-2.549571e-08
-2.552513e-08
-2.552106e-08
-2.545803e-08
-2.345357e-08
-2.338416e-08
-2.337235e-08
-2.339572e-08
-2.344094e-08
-2.350013e-08
-2.356867e-08
-2.364382e-08
-2.372388e-08
-2.380772e-08
-2.389452e-08
-2.398366e-08
-2.407464e-08
-2.416702e-08
-2.426039e-08
-2.435439e-08
-2.444863e-08
-2.454277e-08
-2.463640e-08
-2.472911e-08
-2.482037e-08
-2.490958e-08
-2.499588e-08
-2.507803e-08
-2.515410e-08
-2.522088e-08
-2.527279e-08
-2.530006e-08
-2.528561e-08
-2.520017e-08
-2.322931e-08
-2.315235e-08
-2.313617e-08
-2.315940e-08
-2.320774e-08
-2.327190e-08
-2.334605e-08
-2.342652e-08
-2.351107e-08
-2.359827e-08
-2.368724e-08
-2.377740e-08
-2.386841e-08
-2.396001e-08
-2.405204e-08
-2.414441e-08
-2.423701e-08
-2.432976e-08
-2.442256e-08
-2.451524e-08
-2.460750e-08
-2.469885e-08
-2.478846e-08
-2.487490e-08
-2.495572e-08
-2.502679e-08
-2.508121e-08
-2.510762e-08
-2.508789e-08
-2.499422e-08
-2.296788e-08
-2.289485e-08
-2.288074e-08
-2.290700e-08
-2.295997e-08
-2.303002e-08
-2.311065e-08
-2.319760e-08
-2.328811e-08
-2.338047e-08
-2.347367e-08
-2.356711e-08
-2.366052e-08
-2.375380e-08
-2.384701e-08
-2.394026e-08
-2.403371e-08
-2.412753e-08
-2.422186e-08
-2.431672e-08
-2.441200e-08
-2.450727e-08
-2.460165e-08
-2.469348e-08
-2.477989e-08
-2.485615e-08
-2.491467e-08
-2.494380e-08
-2.492628e-08
-2.483793e-08
-2.267266e-08
-2.261325e-08
-2.260796e-08
-2.264144e-08
-2.270147e-08
-2.277887e-08
-2.286702e-08
-2.296138e-08
-2.305889e-08
-2.315762e-08
-2.325641e-08
-2.335464e-08
-2.345210e-08
-2.354880e-08
-2.364495e-08
-2.374088e-08
-2.383695e-08
-2.393355e-08
-2.403101e-08
-2.412957e-08
-2.422920e-08
-2.432955e-08
-2.442969e-08
-2.452781e-08
-2.462081e-08
-2.470374e-08
-2.476900e-08
-2.480554e-08
-2.479801e-08
-2.472633e-08
-2.234780e-08
-2.230981e-08
-2.231957e-08
-2.236469e-08
-2.243472e-08
-2.252134e-08
-2.261827e-08
-2.272096e-08
-2.282629e-08
-2.293221e-08
-2.303750e-08
-2.314151e-08
-2.324407e-08
-2.334530e-08
-2.344555e-08
-2.354531e-08
-2.364513e-08
-2.374561e-08
-2.384725e-08
-2.395043e-08
-2.405526e-08
-2.416147e-08
-2.426812e-08
-2.437340e-08
-2.447423e-08
-2.456577e-08
-2.464094e-08
-2.468982e-08
-2.469936e-08
-2.465339e-08
-2.199763e-08
-2.198722e-08
-2.201740e-08
-2.207837e-08
-2.216145e-08
-2.225939e-08
-2.236650e-08
-2.247852e-08
-2.259240e-08
-2.270612e-08
-2.281847e-08
-2.292884e-08
-2.303711e-08
-2.314350e-08
-2.324848e-08
-2.335271e-08
-2.345692e-08
-2.356185e-08
-2.366822e-08
-2.377653e-08
-2.388707e-08
-2.399964e-08
-2.411344e-08
-2.422679e-08
-2.433682e-08
-2.443914e-08
-2.452746e-08
-2.459332e-08
-2.462600e-08
-2.461279e-08
-2.162641e-08
-2.164834e-08
-2.170342e-08
-2.178402e-08
-2.188306e-08
-2.199445e-08
-2.211323e-08
-2.223557e-08
-2.235867e-08
-2.248067e-08
-2.260043e-08
-2.271743e-08
-2.283166e-08
-2.294344e-08
-2.305339e-08
-2.316231e-08
-2.327109e-08
-2.338068e-08
-2.349194e-08
-2.360559e-08
-2.372205e-08
-2.384133e-08
-2.396282e-08
-2.408512e-08
-2.420577e-08
-2.432101e-08
-2.442555e-08
-2.451249e-08
-2.457330e-08
-2.459823e-08
-2.123819e-08
-2.129612e-08
-2.137975e-08
-2.148319e-08
-2.160084e-08
-2.172769e-08
-2.185958e-08
-2.199320e-08
-2.212615e-08
-2.225677e-08
-2.238412e-08
-2.250782e-08
-2.262799e-08
-2.274509e-08
-2.285990e-08
-2.297338e-08
-2.308661e-08
-2.320071e-08
-2.331675e-08
-2.343565e-08
-2.355805e-08
-2.368422e-08
-2.381385e-08
-2.394591e-08
-2.407850e-08
-2.420863e-08
-2.433211e-08
-2.444355e-08
-2.453647e-08
-2.460360e-08
-2.083679e-08
-2.093350e-08
-2.104856e-08
-2.117752e-08
-2.131604e-08
-2.146015e-08
-2.160646e-08
-2.175227e-08
-2.189558e-08
-2.203508e-08
-2.217005e-08
-2.230033e-08
-2.242620e-08
-2.254831e-08
-2.266761e-08
-2.278525e-08
-2.290250e-08
-2.302071e-08
-2.314116e-08
-2.326502e-08
-2.339320e-08
-2.352628e-08
-2.366433e-08
-2.380684e-08
-2.395251e-08
-2.409921e-08
-2.424389e-08
-2.438262e-08
-2.451071e-08
-2.462304e-08
-2.042580e-08
-2.056336e-08
-2.071208e-08
-2.086871e-08
-2.102999e-08
-2.119287e-08
-2.135473e-08
-2.151347e-08
-2.166756e-08
-2.181607e-08
-2.195856e-08
-2.209514e-08
-2.222629e-08
-2.235289e-08
-2.247609e-08
-2.259725e-08
-2.271789e-08
-2.283957e-08
-2.296384e-08
-2.309216e-08
-2.322577e-08
-2.336561e-08
-2.351223e-08
-2.366564e-08
-2.382528e-08
-2.398989e-08
-2.415755e-08
-2.432569e-08
-2.449125e-08
-2.465094e-08
-2.000861e-08
-2.018850e-08
-2.037256e-08
-2.055852e-08
-2.074403e-08
-2.092690e-08
-2.110521e-08
-2.127746e-08
-2.144261e-08
-2.160011e-08
-2.174990e-08
-2.189233e-08
-2.202819e-08
-2.215858e-08
-2.228489e-08
-2.240875e-08
-2.253191e-08
-2.265623e-08
-2.278354e-08
-2.291564e-08
-2.305414e-08
-2.320040e-08
-2.335550e-08
-2.352005e-08
-2.369424e-08
-2.387772e-08
-2.406965e-08
-2.426873e-08
-2.447338e-08
-2.468191e-08
-1.958841e-08
-1.981163e-08
-2.003223e-08
-2.024873e-08
-2.045960e-08
-2.066337e-08
-2.085878e-08
-2.104491e-08
-2.122121e-08
-2.138756e-08
-2.154424e-08
-2.169196e-08
-2.183177e-08
-2.196508e-08
-2.209356e-08
-2.221910e-08
-2.234375e-08
-2.246967e-08
-2.259906e-08
-2.273406e-08
-2.287670e-08
-2.302885e-08
-2.319210e-08
-2.336776e-08
-2.355675e-08
-2.375965e-08
-2.397666e-08
-2.420769e-08
-2.445247e-08
-2.471073e-08
-1.916825e-08
-1.943542e-08
-1.969333e-08
-1.994120e-08
-2.017818e-08
-2.040345e-08
-2.061636e-08
-2.081652e-08
-2.100388e-08
-2.117874e-08
-2.134178e-08
-2.149404e-08
-2.163692e-08
-2.177212e-08
-2.190163e-08
-2.202765e-08
-2.215258e-08
-2.227891e-08
-2.240920e-08
-2.254602e-08
-2.269186e-08
-2.284910e-08
-2.301995e-08
-2.320637e-08
-2.341008e-08
-2.363256e-08
-2.387501e-08
-2.413849e-08
-2.442393e-08
-2.473234e-08
-1.875104e-08
-1.906242e-08
-1.935808e-08
-1.963780e-08
-1.990131e-08
-2.014838e-08
-2.037892e-08
-2.059304e-08
-2.079117e-08
-2.097404e-08
-2.114271e-08
-2.129862e-08
-2.144350e-08
-2.157940e-08
-2.170864e-08
-2.183379e-08
-2.195758e-08
-2.208291e-08
-2.221275e-08
-2.235010e-08
-2.249797e-08
-2.265929e-08
-2.283688e-08
-2.303341e-08
-2.325141e-08
-2.349323e-08
-2.376107e-08
-2.405704e-08
-2.438322e-08
-2.474180e-08
-1.833957e-08
-1.869518e-08
-1.902869e-08
-1.934041e-08
-1.963058e-08
-1.989948e-08
-2.014751e-08
-2.037530e-08
-2.058369e-08
-2.077386e-08
-2.094728e-08
-2.110575e-08
-2.125140e-08
-2.138663e-08
-2.151413e-08
-2.163686e-08
-2.175794e-08
-2.188067e-08
-2.200848e-08
-2.214487e-08
-2.229336e-08
-2.245746e-08
-2.264066e-08
-2.284635e-08
-2.307785e-08
-2.333840e-08
-2.363114e-08
-2.395924e-08
-2.432584e-08
-2.473423e-08
-1.793657e-08
-1.833614e-08
-1.870736e-08
-1.905097e-08
-1.936764e-08
-1.965812e-08
-1.992328e-08
-2.016418e-08
-2.038213e-08
-2.057870e-08
-2.075577e-08
-2.091555e-08
-2.106054e-08
-2.119355e-08
-2.131766e-08
-2.143623e-08
-2.155280e-08
-2.167114e-08
-2.179514e-08
-2.192882e-08
-2.207627e-08
-2.224161e-08
-2.242899e-08
-2.264255e-08
-2.288642e-08
-2.316471e-08
-2.348151e-08
-2.384096e-08
-2.424728e-08
-2.470481e-08
-1.754469e-08
-1.798775e-08
-1.839630e-08
-1.877140e-08
-1.911416e-08
-1.942573e-08
-1.970741e-08
-1.996066e-08
-2.018722e-08
-2.038908e-08
-2.056852e-08
-2.072815e-08
-2.087087e-08
-2.099992e-08
-2.111879e-08
-2.123126e-08
-2.134134e-08
-2.145326e-08
-2.157144e-08
-2.170043e-08
-2.184491e-08
-2.200965e-08
-2.219949e-08
-2.241932e-08
-2.267408e-08
-2.296875e-08
-2.330837e-08
-2.369806e-08
-2.414304e-08
-2.464871e-08
-1.716651e-08
-1.765243e-08
-1.809768e-08
-1.850369e-08
-1.887189e-08
-1.920382e-08
-1.950116e-08
-1.976578e-08
-1.999980e-08
-2.020562e-08
-2.038592e-08
-2.054374e-08
-2.068239e-08
-2.080553e-08
-2.091709e-08
-2.102131e-08
-2.112268e-08
-2.122594e-08
-2.133604e-08
-2.145811e-08
-2.159743e-08
-2.175945e-08
-2.194972e-08
-2.217388e-08
-2.243771e-08
-2.274706e-08
-2.310791e-08
-2.352634e-08
-2.400860e-08
-2.456111e-08
-1.680462e-08
-1.733255e-08
-1.781371e-08
-1.824981e-08
-1.864260e-08
-1.899394e-08
-1.930588e-08
-1.958064e-08
-1.982075e-08
-2.002898e-08
-2.020844e-08
-2.036257e-08
-2.049512e-08
-2.061017e-08
-2.071214e-08
-2.080574e-08
-2.089596e-08
-2.098807e-08
-2.108758e-08
-2.120022e-08
-2.133193e-08
-2.148881e-08
-2.167715e-08
-2.190339e-08
-2.217413e-08
-2.249611e-08
-2.287623e-08
-2.332157e-08
-2.383939e-08
-2.443714e-08
-1.646153e-08
-1.703050e-08
-1.754661e-08
-1.801181e-08
-1.842811e-08
-1.879771e-08
-1.912295e-08
-1.940642e-08
-1.965102e-08
-1.985990e-08
-2.003659e-08
-2.018492e-08
-2.030911e-08
-2.041369e-08
-2.050355e-08
-2.058391e-08
-2.066029e-08
-2.073851e-08
-2.082467e-08
-2.092511e-08
-2.104644e-08
-2.119546e-08
-2.137922e-08
-2.160495e-08
-2.188010e-08
-2.221229e-08
-2.260940e-08
-2.307947e-08
-2.363080e-08
-2.427191e-08
-1.613978e-08
-1.674868e-08
-1.729861e-08
-1.779172e-08
-1.823030e-08
-1.861678e-08
-1.895383e-08
-1.924438e-08
-1.949164e-08
-1.969918e-08
-1.987092e-08
-2.001113e-08
-2.012446e-08
-2.021593e-08
-2.029093e-08
-2.035518e-08
-2.041477e-08
-2.047610e-08
-2.054585e-08
-2.063105e-08
-2.073894e-08
-2.087709e-08
-2.105329e-08
-2.127560e-08
-2.155231e-08
-2.189198e-08
-2.230342e-08
-2.279570e-08
-2.337817e-08
-2.406042e-08
-1.584189e-08
-1.648947e-08
-1.707195e-08
-1.759166e-08
-1.805108e-08
-1.845290e-08
-1.880007e-08
-1.909581e-08
-1.934370e-08
-1.954767e-08
-1.971205e-08
-1.984155e-08
-1.994128e-08
-2.001676e-08
-2.007387e-08
-2.011890e-08
-2.015849e-08
-2.019964e-08
-2.024968e-08
-2.031627e-08
-2.040739e-08
-2.053134e-08
-2.069668e-08
-2.091231e-08
-2.118740e-08
-2.153145e-08
-2.195423e-08
-2.246586e-08
-2.307675e-08
-2.379763e-08
-1.557035e-08
-1.625528e-08
-1.686892e-08
-1.741375e-08
-1.789243e-08
-1.830786e-08
-1.866324e-08
-1.896209e-08
-1.920834e-08
-1.940628e-08
-1.956064e-08
-1.967660e-08
-1.975973e-08
-1.981605e-08
-1.985199e-08
-1.987439e-08
-1.989049e-08
-1.990790e-08
-1.993462e-08
-1.997897e-08
-2.004968e-08
-2.015577e-08
-2.030663e-08
-2.051201e-08
-2.078197e-08
-2.112695e-08
-2.155774e-08
-2.208549e-08
-2.272173e-08
-2.347837e-08
-1.532771e-08
-1.604854e-08
-1.669184e-08
-1.726018e-08
-1.775638e-08
-1.818351e-08
-1.854500e-08
-1.884467e-08
-1.908676e-08
-1.927595e-08
-1.941739e-08
-1.951670e-08
-1.957994e-08
-1.961368e-08
-1.962488e-08
-1.962098e-08
-1.960981e-08
-1.959964e-08
-1.959913e-08
-1.961731e-08
-1.966363e-08
-1.974792e-08
-1.988037e-08
-2.007158e-08
-2.033255e-08
-2.067467e-08
-2.110976e-08
-2.165006e-08
-2.230824e-08
-2.309741e-08
-1.511650e-08
-1.587172e-08
-1.654308e-08
-1.713321e-08
-1.764503e-08
-1.808177e-08
-1.844708e-08
-1.874505e-08
-1.898023e-08
-1.915769e-08
-1.928301e-08
-1.936228e-08
-1.940208e-08
-1.940951e-08
-1.939211e-08
-1.935793e-08
-1.931543e-08
-1.927354e-08
-1.924160e-08
-1.922937e-08
-1.924706e-08
-1.930526e-08
-1.941503e-08
-1.958784e-08
-1.983562e-08
-2.017074e-08
-2.060608e-08
-2.115498e-08
-2.183130e-08
-2.264942e-08
-1.493926e-08
-1.572731e-08
-1.642505e-08
-1.703514e-08
-1.756055e-08
-1.800465e-08
-1.837127e-08
-1.866476e-08
-1.889003e-08
-1.905252e-08
-1.915824e-08
-1.921379e-08
-1.922629e-08
-1.920338e-08
-1.915323e-08
-1.908449e-08
-1.900630e-08
-1.892824e-08
-1.886038e-08
-1.881320e-08
-1.879768e-08
-1.882524e-08
-1.890774e-08
-1.905758e-08
-1.928763e-08
-1.961126e-08
-2.004242e-08
-2.059560e-08
-2.128589e-08
-2.212897e-08
-1.479859e-08
-1.561785e-08
-1.634024e-08
-1.696835e-08
-1.750518e-08
-1.795420e-08
-1.831942e-08
-1.860544e-08
-1.881751e-08
-1.896147e-08
-1.904383e-08
-1.907166e-08
-1.905266e-08
-1.899508e-08
-1.890770e-08
-1.879983e-08
-1.868127e-08
-1.856232e-08
-1.845374e-08
-1.836679e-08
-1.831320e-08
-1.830521e-08
-1.835557e-08
-1.847755e-08
-1.868498e-08
-1.899228e-08
-1.941447e-08
-1.996723e-08
-2.066690e-08
-2.153053e-08
-1.469709e-08
-1.554597e-08
-1.629121e-08
-1.693532e-08
-1.748127e-08
-1.793258e-08
-1.829345e-08
-1.856874e-08
-1.876403e-08
-1.888561e-08
-1.894047e-08
-1.893626e-08
-1.888125e-08
-1.878432e-08
-1.865493e-08
-1.850304e-08
-1.833915e-08
-1.817427e-08
-1.801990e-08
-1.788805e-08
-1.779124e-08
-1.774253e-08
-1.775553e-08
-1.784443e-08
-1.802405e-08
-1.830982e-08
-1.871789e-08
-1.926514e-08
-1.996919e-08
-2.084850e-08
-1.463743e-08
-1.551433e-08
-1.628062e-08
-1.693863e-08
-1.749124e-08
-1.794203e-08
-1.829535e-08
-1.855634e-08
-1.873096e-08
-1.882595e-08
-1.884885e-08
-1.880790e-08
-1.871201e-08
-1.857074e-08
-1.839421e-08
-1.819310e-08
-1.797862e-08
-1.776250e-08
-1.755698e-08
-1.737483e-08
-1.722937e-08
-1.713447e-08
-1.710462e-08
-1.715493e-08
-1.730119e-08
-1.755989e-08
-1.794831e-08
-1.848454e-08
-1.918755e-08
-2.007724e-08
-1.462233e-08
-1.552571e-08
-1.631123e-08
-1.698095e-08
-1.753764e-08
-1.798488e-08
-1.832719e-08
-1.856999e-08
-1.871966e-08
-1.878348e-08
-1.876955e-08
-1.868679e-08
-1.854478e-08
-1.835380e-08
-1.812469e-08
-1.786885e-08
-1.759823e-08
-1.732528e-08
-1.706300e-08
-1.682490e-08
-1.662509e-08
-1.647828e-08
-1.639980e-08
-1.640570e-08
-1.651274e-08
-1.673849e-08
-1.710136e-08
-1.762068e-08
-1.831677e-08
-1.921102e-08
-1.465458e-08
-1.558299e-08
-1.638594e-08
-1.706513e-08
-1.762313e-08
-1.806355e-08
-1.839105e-08
-1.861140e-08
-1.873146e-08
-1.875908e-08
-1.870305e-08
-1.857298e-08
-1.837923e-08
-1.813281e-08
-1.784535e-08
-1.752898e-08
-1.719640e-08
-1.686079e-08
-1.653588e-08
-1.623595e-08
-1.597587e-08
-1.577116e-08
-1.563802e-08
-1.559340e-08
-1.565507e-08
-1.584164e-08
-1.617268e-08
-1.666878e-08
-1.735163e-08
-1.824414e-08
-1.473708e-08
-1.568921e-08
-1.650781e-08
-1.719414e-08
-1.775053e-08
-1.818056e-08
-1.848909e-08
-1.868230e-08
-1.876760e-08
-1.875352e-08
-1.864961e-08
-1.846630e-08
-1.821476e-08
-1.790684e-08
-1.755492e-08
-1.717195e-08
-1.677135e-08
-1.636703e-08
-1.597344e-08
-1.560559e-08
-1.527911e-08
-1.501031e-08
-1.481622e-08
-1.471472e-08
-1.472454e-08
-1.486538e-08
-1.515796e-08
-1.562412e-08
-1.628694e-08
-1.717088e-08
-1.487284e-08
-1.584757e-08
-1.668013e-08
-1.737119e-08
-1.792280e-08
-1.833852e-08
-1.862348e-08
-1.878434e-08
-1.882919e-08
-1.876737e-08
-1.860929e-08
-1.836631e-08
-1.805052e-08
-1.767462e-08
-1.725187e-08
-1.679597e-08
-1.632109e-08
-1.584184e-08
-1.537337e-08
-1.493137e-08
-1.453220e-08
-1.419291e-08
-1.393139e-08
-1.376639e-08
-1.371762e-08
-1.380584e-08
-1.405293e-08
-1.448202e-08
-1.511758e-08
-1.598558e-08
-1.506507e-08
-1.606153e-08
-1.690641e-08
-1.759969e-08
-1.814307e-08
-1.854014e-08
-1.879638e-08
-1.891908e-08
-1.891714e-08
-1.880088e-08
-1.858176e-08
-1.827216e-08
-1.788520e-08
-1.743455e-08
-1.693429e-08
-1.639895e-08
-1.584338e-08
-1.528288e-08
-1.473323e-08
-1.421076e-08
-1.373249e-08
-1.331620e-08
-1.298057e-08
-1.274521e-08
-1.263081e-08
-1.265921e-08
-1.285345e-08
-1.323793e-08
-1.383849e-08
-1.468265e-08
-1.531721e-08
-1.633482e-08
-1.719048e-08
-1.788332e-08
-1.841468e-08
-1.878822e-08
-1.900992e-08
-1.908788e-08
-1.903206e-08
-1.885394e-08
-1.856623e-08
-1.818252e-08
-1.771705e-08
-1.718450e-08
-1.659986e-08
-1.597842e-08
-1.533571e-08
-1.468762e-08
-1.405048e-08
-1.344120e-08
-1.287739e-08
-1.237748e-08
-1.196090e-08
-1.164813e-08
-1.146081e-08
-1.142186e-08
-1.155549e-08
-1.188738e-08
-1.244477e-08
-1.325666e-08
-1.563299e-08
-1.667158e-08
-1.753657e-08
-1.822611e-08
-1.874116e-08
-1.908561e-08
-1.926611e-08
-1.929185e-08
-1.917412e-08
-1.892588e-08
-1.856130e-08
-1.809538e-08
-1.754362e-08
-1.692177e-08
-1.624574e-08
-1.553152e-08
-1.479525e-08
-1.405332e-08
-1.332251e-08
-1.262017e-08
-1.196439e-08
-1.137421e-08
-1.086974e-08
-1.047229e-08
-1.020448e-08
-1.009031e-08
-1.015520e-08
-1.042611e-08
-1.093166e-08
-1.170232e-08
-1.601656e-08
-1.707643e-08
-1.794938e-08
-1.863246e-08
-1.912631e-08
-1.943518e-08
-1.956675e-08
-1.953165e-08
-1.934291e-08
-1.901530e-08
-1.856477e-08
-1.800794e-08
-1.736169e-08
-1.664294e-08
-1.586846e-08
-1.505490e-08
-1.421887e-08
-1.337709e-08
-1.254665e-08
-1.174518e-08
-1.099114e-08
-1.030406e-08
-9.704676e-09
-9.215111e-09
-8.858961e-09
-8.661344e-09
-8.648939e-09
-8.850031e-09
-9.294610e-09
-1.001456e-08
-1.647265e-08
-1.755463e-08
-1.843424e-08
-1.910727e-08
-1.957412e-08
-1.983976e-08
-1.991332e-08
-1.980738e-08
-1.953720e-08
-1.911983e-08
-1.857337e-08
-1.791631e-08
-1.716707e-08
-1.634372e-08
-1.546387e-08
-1.454468e-08
-1.360306e-08
-1.265587e-08
-1.172025e-08
-1.081395e-08
-9.955606e-09
-9.165099e-09
-8.463731e-09
-7.874413e-09
-7.421748e-09
-7.132053e-09
-7.033337e-09
-7.155281e-09
-7.529275e-09
-8.188572e-09
-1.700669e-08
-1.811229e-08
-1.899724e-08
-1.965597e-08
-2.008886e-08
-2.030206e-08
-2.030677e-08
-2.011824e-08
-1.975462e-08
-1.923582e-08
-1.858250e-08
-1.781531e-08
-1.695433e-08
-1.601879e-08
-1.502699e-08
-1.399642e-08
-1.294402e-08
-1.188651e-08
-1.084080e-08
-9.824480e-09
-8.856158e-09
-7.955894e-09
-7.145462e-09
-6.448548e-09
-5.890827e-09
-5.499929e-09
-5.305337e-09
-5.338256e-09
-5.631542e-09
-6.219778e-09
-1.762512e-08
-1.875660e-08
-1.964544e-08
-2.028465e-08
-2.067499e-08
-2.082448e-08
-2.074729e-08
-2.046227e-08
-1.999134e-08
-1.935796e-08
-1.858587e-08
-1.769815e-08
-1.671663e-08
-1.566162e-08
-1.455193e-08
-1.340507e-08
-1.223764e-08
-1.106585e-08
-9.906040e-09
-8.775262e-09
-7.691823e-09
-6.675758e-09
-5.749197e-09
-4.936600e-09
-4.264812e-09
-3.762966e-09
-3.462250e-09
-3.395612e-09
-3.597517e-09
-4.103868e-09
-1.833571e-08
-1.949618e-08
-2.038712e-08
-2.100018e-08
-2.133712e-08
-2.140887e-08
-2.123386e-08
-2.083581e-08
-2.024149e-08
-1.947878e-08
-1.857504e-08
-1.755606e-08
-1.644542e-08
-1.526435e-08
-1.403182e-08
-1.276495e-08
-1.147957e-08
-1.019087e-08
-8.914133e-09
-7.665476e-09
-6.462519e-09
-5.325010e-09
-4.275300e-09
-3.338621e-09
-2.543145e-09
-1.919791e-09
-1.501812e-09
-1.324262e-09
-1.423472e-09
-1.836732e-09
-1.914800e-08
-2.034152e-08
-2.123210e-08
-2.181029e-08
-2.207983e-08
-2.205619e-08
-2.176378e-08
-2.123289e-08
-2.049657e-08
-1.958808e-08
-1.853898e-08
-1.737794e-08
-1.613022e-08
-1.481760e-08
-1.345875e-08
-1.206985e-08
-1.066535e-08
-9.258823e-09
-7.863925e-09
-6.495280e-09
-5.169372e-09
-3.905322e-09
-2.725509e-09
-1.655948e-09
-7.263502e-10
3.017120e-11
5.777492e-10
8.786549e-10
8.942381e-10
5.856402e-10
-2.007395e-08
-2.130558e-08
-2.219216e-08
-2.272364e-08
-2.290746e-08
-2.276588e-08
-2.233183e-08
-2.164440e-08
-2.074460e-08
-1.967220e-08
-1.846345e-08
-1.714997e-08
-1.575834e-08
-1.431037e-08
-1.282378e-08
-1.131307e-08
-9.790559e-09
-8.267496e-09
-6.755191e-09
-5.266135e-09
-3.815099e-09
-2.420131e-09
-1.103376e-09
1.083881e-10
1.183631e-09
2.086476e-09
2.777641e-09
3.215838e-09
3.359346e-09
3.167346e-09
-2.112884e-08
-2.240461e-08
-2.328148e-08
-2.374987e-08
-2.382352e-08
-2.353499e-08
-2.292918e-08
-2.205687e-08
-2.096909e-08
-1.971321e-08
-1.833051e-08
-1.685528e-08
-1.531480e-08
-1.373011e-08
-1.211707e-08
-1.048761e-08
-8.851038e-09
-7.215435e-09
-5.588949e-09
-3.981167e-09
-2.404436e-09
-8.751378e-10
5.852039e-10
1.949131e-09
3.182982e-09
4.247352e-09
5.098397e-09
5.689929e-09
5.975926e-09
5.912884e-09
-2.233244e-08
-2.365928e-08
-2.451727e-08
-2.489937e-08
-2.482989e-08
-2.435680e-08
-2.354181e-08
-2.245105e-08
-2.114785e-08
-1.968807e-08
-1.811795e-08
-1.647371e-08
-1.478229e-08
-1.306280e-08
-1.132808e-08
-9.586422e-09
-7.843157e-09
-6.102241e-09
-4.367772e-09
-2.645537e-09
-9.445944e-10
7.211295e-10
2.331329e-09
3.858108e-09
5.265380e-09
6.509254e-09
7.539717e-09
8.303656e-09
8.748795e-09
8.827638e-09
-2.371085e-08
-2.509617e-08
-2.592041e-08
-2.618286e-08
-2.592525e-08
-2.521868e-08
-2.414825e-08
-2.279994e-08
-2.125153e-08
-1.956776e-08
-1.779898e-08
-1.598191e-08
-1.414152e-08
-1.229340e-08
-1.044602e-08
-8.602827e-09
-6.764142e-09
-4.928851e-09
-3.096055e-09
-1.266761e-09
5.543040e-10
2.356718e-09
4.122318e-09
5.823326e-09
7.421105e-09
8.866177e-09
1.010017e-08
1.106003e-08
1.168410e-08
1.191863e-08
-2.529911e-08
-2.674993e-08
-2.751608e-08
-2.761011e-08
-2.710246e-08
-2.609884e-08
-2.471657e-08
-2.306644e-08
-2.124221e-08
-1.931671e-08
-1.734232e-08
-1.535379e-08
-1.337182e-08
-1.140653e-08
-9.460443e-09
-7.530969e-09
-5.612421e-09
-3.697747e-09
-1.780162e-09
1.451243e-10
2.078921e-09
4.015693e-09
5.940836e-09
7.827814e-09
9.635767e-09
1.130857e-08
1.277664e-08
1.396254e-08
1.479017e-08
1.519566e-08
-2.714517e-08
-2.866631e-08
-2.933409e-08
-2.918739e-08
-2.834403e-08
-2.696143e-08
-2.520025e-08
-2.320072e-08
-2.107229e-08
-1.889286e-08
-1.671297e-08
-1.456171e-08
-1.245247e-08
-1.038763e-08
-8.362192e-09
-6.366454e-09
-4.387953e-09
-2.413047e-09
-4.283494e-10
1.577673e-09
3.612681e-09
5.677780e-09
7.764016e-09
9.848170e-09
1.188846e-08
1.382156e-08
1.556327e-08
1.701525e-08
1.807879e-08
1.867310e-08
-2.931619e-08
-3.090632e-08
-3.140830e-08
-3.091212e-08
-2.961451e-08
-2.774932e-08
-2.553318e-08
-2.313782e-08
-2.068422e-08
-1.824888e-08
-1.587421e-08
-1.357863e-08
-1.136461e-08
-9.224534e-09
-7.144528e-09
-5.107046e-09
-3.092491e-09
-1.080372e-09
9.496692e-10
3.016619e-09
5.136282e-09
7.318472e-09
9.562814e-09
1.185289e-08
1.414913e-08
1.638202e-08
1.844931e-08
2.022255e-08
2.156700e-08
2.237258e-08
-3.190873e-08
-3.355233e-08
-3.377318e-08
-3.276216e-08
-3.084771e-08
-2.837408e-08
-2.562429e-08
-2.279661e-08
-2.001240e-08
-1.733547e-08
-1.479123e-08
-1.238141e-08
-1.009404e-08
-7.909567e-09
-5.804514e-09
-3.753396e-09
-1.729707e-09
2.935801e-10
2.343634e-09
4.447149e-09
6.629069e-09
8.910075e-09
1.130207e-08
1.380080e-08
1.637506e-08
1.895367e-08
2.141484e-08
2.358794e-08
2.527971e-08
2.632782e-08
-3.506712e-08
-3.671425e-08
-3.645339e-08
-3.467443e-08
-3.192674e-08
-2.870378e-08
-2.535405e-08
-2.208240e-08
-1.898878e-08
-1.610765e-08
-1.343682e-08
-1.095552e-08
-8.634613e-09
-6.441887e-09
-4.344471e-09
-2.309698e-09
-3.051349e-10
1.701783e-09
3.744184e-09
5.856009e-09
8.071645e-09
1.042434e-08
1.294226e-08
1.564046e-08
1.850666e-08
2.147947e-08
2.442243e-08
2.710972e-08
2.925311e-08
3.059167e-08
-3.901368e-08
-4.054142e-08
-3.943431e-08
-3.650350e-08
-3.265306e-08
-2.855218e-08
-2.457800e-08
-2.089718e-08
-1.755443e-08
-1.453491e-08
-1.179922e-08
-9.300509e-09
-6.992020e-09
-4.829836e-09
-2.773257e-09
-7.841600e-10
1.174086e-09
3.137892e-09
5.144748e-09
7.234444e-09
9.449954e-09
1.183747e-08
1.444436e-08
1.731277e-08
2.046435e-08
2.386981e-08
2.739960e-08
3.076995e-08
3.353928e-08
3.525387e-08
-4.412225e-08
-4.519351e-08
-4.259160e-08
-3.795182e-08
-3.271749e-08
-2.768126e-08
-2.314665e-08
-1.916239e-08
-1.567838e-08
-1.261478e-08
-9.891073e-09
-7.435617e-09
-5.186969e-09
-3.092663e-09
-1.107060e-09
8.108625e-10
2.699630e-09
4.597304e-09
6.543509e-09
8.581546e-09
1.076060e-08
1.313788e-08
1.577983e-08
1.876063e-08
2.215153e-08
2.599105e-08
3.021110e-08
3.450294e-08
3.820449e-08
4.045664e-08
-5.101872e-08
-5.085316e-08
-4.547237e-08
-3.843885e-08
-3.168699e-08
-2.584737e-08
-2.095484e-08
-1.685707e-08
-1.338243e-08
-1.038725e-08
-7.757086e-09
-5.403446e-09
-3.256735e-09
-1.260955e-09
6.306873e-10
2.459169e-09
4.262441e-09
6.077897e-09
7.944817e-09
9.907048e-09
1.201623e-08
1.433587e-08
1.694637e-08
1.995070e-08
2.347616e-08
2.766518e-08
3.259945e-08
3.810261e-08
4.331321e-08
4.652604e-08
-6.094899e-08
-5.703340e-08
-4.708901e-08
-3.709485e-08
-2.911293e-08
-2.292382e-08
-1.802682e-08
-1.406439e-08
-1.076364e-08
-7.943922e-09
-5.476636e-09
-3.269620e-09
-1.253751e-09
6.249071e-10
2.410566e-09
4.141521e-09
5.853075e-09
7.580037e-09
9.359179e-09
1.123203e-08
1.324844e-08
1.547168e-08
1.798603e-08
2.090856e-08
2.440671e-08
2.872487e-08
3.417631e-08
4.108894e-08
4.878712e-08
5.384040e-08
-7.657864e-08
-6.138180e-08
-4.466880e-08
-3.308165e-08
-2.493097e-08
-1.910199e-08
-1.460561e-08
-1.100139e-08
-7.999038e-09
-5.423735e-09
-3.157138e-09
-1.116475e-09
7.595327e-10
2.518537e-09
4.199652e-09
5.836897e-09
7.461789e-09
9.105527e-09
1.080115e-08
1.258600e-08
1.450500e-08
1.661540e-08
1.899451e-08
2.175269e-08
2.505860e-08
2.918673e-08
3.461900e-08
4.227227e-08
5.297240e-08
6.497133e-08
-9.382701e-08
-5.909688e-08
-3.670749e-08
-2.689427e-08
-1.998492e-08
-1.503198e-08
-1.115457e-08
-7.991192e-09
-5.315878e-09
-2.989152e-09
-9.165355e-10
9.693452e-10
2.719205e-09
4.373219e-09
5.964954e-09
7.524067e-09
9.078367e-09
1.065558e-08
1.228507e-08
1.399989e-08
1.583929e-08
1.785256e-08
2.010494e-08
2.268773e-08
2.573875e-08
2.947694e-08
3.433039e-08
4.109604e-08
5.288326e-08
7.848131e-08
SCALARS DxRZ double 1
LOOKUP_TABLE dxrz
1.542111e-11
6.163424e-12
-3.047635e-11
-7.363879e-11
-1.162323e-10
-1.554066e-10
-1.902488e-10
-2.205734e-10
-2.465178e-10
-2.683384e-10
-2.863215e-10
-3.007357e-10
-3.118078e-10
-3.197084e-10
-3.245435e-10
-3.263474e-10
-3.250777e-10
-3.206105e-10
-3.127357e-10
-3.011546e-10
-2.854785e-10
-2.652359e-10
-2.398910e-10
-2.088938e-10
-1.717946e-10
-1.285078e-10
-7.994942e-11
-2.960437e-11
1.221867e-11
1.691318e-11
1.010641e-11
-3.961039e-11
-1.513478e-10
-2.870730e-10
-4.259059e-10
-5.574913e-10
-6.771943e-10
-7.832191e-10
-8.752018e-10
-9.534597e-10
-1.018598e-09
-1.071289e-09
-1.112151e-09
-1.141670e-09
-1.160153e-09
-1.167696e-09
-1.164162e-09
-1.149165e-09
-1.122058e-09
-1.081937e-09
-1.027657e-09
-9.578828e-10
-8.711974e-10
-7.663283e-10
-6.425987e-10
-5.008315e-10
-3.451467e-10
-1.866150e-10
-4.979884e-11
1.659357e-11
-3.550559e-11
-1.541646e-10
-3.291243e-10
-5.296559e-10
-7.349664e-10
-9.324001e-10
-1.114843e-09
-1.278744e-09
-1.422669e-09
-1.546369e-09
-1.650207e-09
-1.734803e-09
-1.800809e-09
-1.848769e-09
-1.879023e-09
-1.891649e-09
-1.886417e-09
-1.862769e-09
-1.819815e-09
-1.756344e-09
-1.670884e-09
-1.561814e-09
-1.427572e-09
-1.267041e-09
-1.080218e-09
-8.693623e-10
-6.408741e-10
-4.080954e-10
-1.948756e-10
-3.886596e-11
-9.250768e-11
-2.958419e-10
-5.327033e-10
-7.860834e-10
-1.040924e-09
-1.286094e-09
-1.514225e-09
-1.720971e-09
-1.904101e-09
-2.062748e-09
-2.196849e-09
-2.306757e-09
-2.392962e-09
-2.455909e-09
-2.495868e-09
-2.512848e-09
-2.506543e-09
-2.476299e-09
-2.421122e-09
-2.339709e-09
-2.230535e-09
-2.092012e-09
-1.922757e-09
-1.722027e-09
-1.490389e-09
-1.230683e-09
-9.492789e-10
-6.573235e-10
-3.712664e-10
-1.106651e-10
-1.494260e-10
-4.414764e-10
-7.404623e-10
-1.041504e-09
-1.336522e-09
-1.617830e-09
-1.879459e-09
-2.117358e-09
-2.329109e-09
-2.513512e-09
-2.670173e-09
-2.799167e-09
-2.900775e-09
-2.975289e-09
-3.022868e-09
-3.043440e-09
-3.036638e-09
-3.001772e-09
-2.937829e-09
-2.843527e-09
-2.717408e-09
-2.558010e-09
-2.364133e-09
-2.135212e-09
-1.871824e-09
-1.576264e-09
-1.253026e-09
-9.087539e-10
-5.507772e-10
-1.825749e-10
-2.017867e-10
-5.790505e-10
-9.387657e-10
-1.284399e-09
-1.614099e-09
-1.924156e-09
-2.210846e-09
-2.471208e-09
-2.703241e-09
-2.905802e-09
-3.078399e-09
-3.220955e-09
-3.333599e-09
-3.416497e-09
-3.469710e-09
-3.493100e-09
-3.486265e-09
-3.448505e-09
-3.378831e-09
-3.276010e-09
-3.138653e-09
-2.965365e-09
-2.754950e-09
-2.506668e-09
-2.220498e-09
-1.897314e-09
-1.538734e-09
-1.146234e-09
-7.188534e-10
-2.485644e-10
-2.479709e-10
-7.029557e-10
-1.119692e-09
-1.506838e-09
-1.867332e-09
-2.201122e-09
-2.506960e-09
-2.783411e-09
-3.029324e-09
-3.243974e-09
-3.427031e-09
-3.578445e-09
-3.698316e-09
-3.786757e-09
-3.843783e-09
-3.869224e-09
-3.862665e-09
-3.823416e-09
-3.750509e-09
-3.642735e-09
-3.498705e-09
-3.316957e-09
-3.096070e-09
-2.834774e-09
-2.531995e-09
-2.186696e-09
-1.797317e-09
-1.360510e-09
-8.687383e-10
-3.064033e-10
-2.875486e-10
-8.108423e-10
-1.279082e-09
-1.703917e-09
-2.091671e-09
-2.445294e-09
-2.765874e-09
-3.053631e-09
-3.308506e-09
-3.530450e-09
-3.719523e-09
-3.875887e-09
-3.999745e-09
-4.091257e-09
-4.150460e-09
-4.177199e-09
-4.171070e-09
-4.131394e-09
-4.057206e-09
-3.947266e-09
-3.800094e-09
-3.614006e-09
-3.387147e-09
-3.117464e-09
-2.802567e-09
-2.439349e-09
-2.023230e-09
-1.546800e-09
-9.976792e-10
-3.555231e-10
-3.205965e-10
-9.020322e-10
-1.415061e-09
-1.872918e-09
-2.284180e-09
-2.654103e-09
-2.985785e-09
-3.281038e-09
-3.540979e-09
-3.766383e-09
-3.957862e-09
-4.115942e-09
-4.241055e-09
-4.333508e-09
-4.393431e-09
-4.420730e-09
-4.415038e-09
-4.375686e-09
-4.301682e-09
-4.191699e-09
-4.044070e-09
-3.856768e-09
-3.627354e-09
-3.352846e-09
-3.029447e-09
-2.652061e-09
-2.213460e-09
-1.703022e-09
-1.104947e-09
-3.960281e-10
-3.473970e-10
-9.766689e-10
-1.527078e-09
-2.012577e-09
-2.443179e-09
-2.825829e-09
-3.165263e-09
-3.464717e-09
-3.726456e-09
-3.952134e-09
-4.143019e-09
-4.300100e-09
-4.424144e-09
-4.515687e-09
-4.575023e-09
-4.602159e-09
-4.596788e-09
-4.558250e-09
-4.485502e-09
-4.377081e-09
-4.231063e-09
-4.044993e-09
-3.815766e-09
-3.539422e-09
-3.210803e-09
-2.823020e-09
-2.366649e-09
-1.828619e-09
-1.190789e-09
-4.282917e-10
-3.683001e-10
-1.035276e-09
-1.615305e-09
-2.122549e-09
-2.567883e-09
-2.959458e-09
-3.303297e-09
-3.603852e-09
-3.864445e-09
-4.087604e-09
-4.275286e-09
-4.429015e-09
-4.549959e-09
-4.638954e-09
-4.696504e-09
-4.722762e-09
-4.717500e-09
-4.680070e-09
-4.609359e-09
-4.503740e-09
-4.360988e-09
-4.178181e-09
-3.951526e-09
-3.676113e-09
-3.345539e-09
-2.951378e-09
-2.482443e-09
-1.923849e-09
-1.255879e-09
-4.527659e-10
-3.836590e-10
-1.078523e-09
-1.680282e-09
-2.203018e-09
-2.658095e-09
-3.054497e-09
-3.399242e-09
-3.697791e-09
-3.954405e-09
-4.172434e-09
-4.354525e-09
-4.502764e-09
-4.618764e-09
-4.703703e-09
-4.758342e-09
-4.783009e-09
-4.777572e-09
-4.741404e-09
-4.673320e-09
-4.571512e-09
-4.433446e-09
-4.255725e-09
-4.033897e-09
-3.762177e-09
-3.433074e-09
-3.036885e-09
-2.561045e-09
-1.989344e-09
-1.301030e-09
-4.698951e-10
-3.938011e-10
-1.107105e-09
-1.722704e-09
-2.254457e-09
-2.713974e-09
-3.110810e-09
-3.452739e-09
-3.746048e-09
-3.995812e-09
-4.206135e-09
-4.380326e-09
-4.521034e-09
-4.630336e-09
-4.709783e-09
-4.760418e-09
-4.782771e-09
-4.776827e-09
-4.741989e-09
-4.677009e-09
-4.579902e-09
-4.447836e-09
-4.276968e-09
-4.062243e-09
-3.797106e-09
-3.473145e-09
-3.079623e-09
-2.602917e-09
-2.025863e-09
-1.327042e-09
-4.800768e-10
-3.990159e-10
-1.121676e-09
-1.743300e-09
-2.277463e-09
-2.735874e-09
-3.128478e-09
-3.463621e-09
-3.748264e-09
-3.988183e-09
-4.188156e-09
-4.352114e-09
-4.483254e-09
-4.584122e-09
-4.656653e-09
-4.702194e-09
-4.721494e-09
-4.714676e-09
-4.681190e-09
-4.619739e-09
-4.528185e-09
-4.403427e-09
-4.241224e-09
-4.035993e-09
-3.780527e-09
-3.465653e-09
-3.079817e-09
-2.608595e-09
-2.034143e-09
-1.334625e-09
-4.836460e-10
-3.995521e-10
-1.122823e-09
-1.742764e-09
-2.272658e-09
-2.724233e-09
-3.107696e-09
-3.431839e-09
-3.704172e-09
-3.931072e-09
-4.117919e-09
-4.269218e-09
-4.388692e-09
-4.479347e-09
-4.543508e-09
-4.582838e-09
-4.598322e-09
-4.590239e-09
-4.558107e-09
-4.500606e-09
-4.415477e-09
-4.299390e-09
-4.147771e-09
-3.954593e-09
-3.712110e-09
-3.410544e-09
-3.037705e-09
-2.578571e-09
-2.014823e-09
-1.324366e-09
-4.808713e-10
-3.956182e-10
-1.111053e-09
-1.721721e-09
-2.240634e-09
-2.679496e-09
-3.048706e-09
-3.357402e-09
-3.613554e-09
-3.824056e-09
-3.994828e-09
-4.130905e-09
-4.236506e-09
-4.315086e-09
-4.369361e-09
-4.401316e-09
-4.412189e-09
-4.402432e-09
-4.371656e-09
-4.318551e-09
-4.240773e-09
-4.134817e-09
-3.995840e-09
-3.817462e-09
-3.591510e-09
-3.307733e-09
-2.953461e-09
-2.513232e-09
-1.968399e-09
-1.296718e-09
-4.719566e-10
-3.873864e-10
-1.086794e-09
-1.680711e-09
-2.181914e-09
-2.602076e-09
-2.951740e-09
-3.240331e-09
-3.476208e-09
-3.666720e-09
-3.818276e-09
-3.936400e-09
-4.025784e-09
-4.090317e-09
-4.133104e-09
-4.156458e-09
-4.161883e-09
-4.150027e-09
-4.120622e-09
-4.072397e-09
-4.002972e-09
-3.908720e-09
-3.784600e-09
-3.623964e-09
-3.418317e-09
-3.157051e-09
-2.827142e-09
-2.412819e-09
-1.895213e-09
-1.251997e-09
-4.570456e-10
-3.749961e-10
-1.050396e-09
-1.620183e-09
-2.096943e-09
-2.492324e-09
-2.816992e-09
-3.080623e-09
-3.291918e-09
-3.458637e-09
-3.587635e-09
-3.684896e-09
-3.755562e-09
-3.803948e-09
-3.833542e-09
-3.846996e-09
-3.846092e-09
-3.831696e-09
-3.803688e-09
-3.760878e-09
-3.700890e-09
-3.620036e-09
-3.513146e-09
-3.373383e-09
-3.192025e-09
-2.958212e-09
-2.658671e-09
-2.277419e-09
-1.795446e-09
-1.190392e-09
-4.362277e-10
-3.585588e-10
-1.002143e-09
-1.540500e-09
-1.986077e-09
-2.350515e-09
-2.644598e-09
-2.878233e-09
-3.060437e-09
-3.199350e-09
-3.302247e-09
-3.375549e-09
-3.424832e-09
-3.454830e-09
-3.469416e-09
-3.471589e-09
-3.463425e-09
-3.446029e-09
-3.419461e-09
-3.382647e-09
-3.333267e-09
-3.267624e-09
-3.180486e-09
-3.064908e-09
-2.912019e-09
-2.710799e-09
-2.447815e-09
-2.106955e-09
-1.669128e-09
-1.111972e-09
-4.095430e-10
-3.381614e-10
-9.422539e-10
-1.441945e-09
-1.849587e-09
-2.176841e-09
-2.434621e-09
-2.633056e-09
-2.781468e-09
-2.888362e-09
-2.961415e-09
-3.007474e-09
-3.032543e-09
-3.041768e-09
-3.039417e-09
-3.028841e-09
-3.012430e-09
-2.991553e-09
-2.966479e-09
-2.936291e-09
-2.898769e-09
-2.850263e-09
-2.785542e-09
-2.697621e-09
-2.577561e-09
-2.414258e-09
-2.194196e-09
-1.901199e-09
-1.516147e-09
-1.016699e-09
-3.769892e-10
-3.138707e-10
-8.708972e-10
-1.324725e-09
-1.687660e-09
-1.971414e-09
-2.187046e-09
-2.344917e-09
-2.454653e-09
-2.525119e-09
-2.564393e-09
-2.579741e-09
-2.577594e-09
-2.563519e-09
-2.542181e-09
-2.517301e-09
-2.491600e-09
-2.466736e-09
-2.443221e-09
-2.420330e-09
-2.395990e-09
-2.366652e-09
-2.327143e-09
-2.270503e-09
-2.187796e-09
-2.067901e-09
-1.897290e-09
-1.659778e-09
-1.336262e-09
-9.044423e-10
-3.385262e-10
-2.857365e-10
-7.881941e-10
-1.188984e-09
-1.500408e-09
-1.734263e-09
-1.901779e-09
-2.013564e-09
-2.079562e-09
-2.109004e-09
-2.110373e-09
-2.091361e-09
-2.058834e-09
-2.018786e-09
-1.976295e-09
-1.935467e-09
-1.899376e-09
-1.869994e-09
-1.848108e-09
-1.833224e-09
-1.823458e-09
-1.815411e-09
-1.804028e-09
-1.782432e-09
-1.741751e-09
-1.670916e-09
-1.556441e-09
-1.382190e-09
-1.129115e-09
-7.749856e-10
-2.940812e-10
-2.537942e-10
-6.942265e-10
-1.034804e-09
-1.287868e-09
-1.465337e-09
-1.578641e-09
-1.638665e-09
-1.655686e-09
-1.639322e-09
-1.598475e-09
-1.541278e-09
-1.475045e-09
-1.406213e-09
-1.340287e-09
-1.281781e-09
-1.234142e-09
-1.199687e-09
-1.179505e-09
-1.173371e-09
-1.179633e-09
-1.195091e-09
-1.214855e-09
-1.232192e-09
-1.238352e-09
-1.222374e-09
-1.170876e-09
-1.067818e-09
-8.942529e-10
-6.280424e-10
-2.435539e-10
-2.180679e-10
-5.890423e-10
-8.622155e-10
-1.050010e-09
-1.164505e-09
-1.217369e-09
-1.219795e-09
-1.182426e-09
-1.115291e-09
-1.027736e-09
-9.283565e-10
-8.249348e-10
-7.243718e-10
-6.326223e-10
-5.546251e-10
-4.942302e-10
-4.541201e-10
-4.357228e-10
-4.391160e-10
-4.629195e-10
-5.041747e-10
-5.582092e-10
-6.184855e-10
-6.764314e-10
-7.212522e-10
-7.397217e-10
-7.159512e-10
-6.311349e-10
-4.632657e-10
-1.868205e-10
-1.785714e-10
-4.726593e-10
-6.712000e-10
-7.867385e-10
-8.315583e-10
-8.176107e-10
-7.564360e-10
-6.590834e-10
-5.360291e-10
-3.970947e-10
-2.513682e-10
-1.071264e-10
2.824114e-11
1.483069e-10
2.476810e-10
3.220884e-10
3.684509e-10
3.849743e-10
3.712439e-10
3.283303e-10
2.589072e-10
1.673836e-10
6.005106e-11
-5.475019e-11
-1.664465e-10
-2.620240e-10
-3.257978e-10
-3.391540e-10
-2.802600e-10
-1.237382e-10
-1.353104e-10
-3.450684e-10
-4.616921e-10
-4.978924e-10
-4.662065e-10
-3.789173e-10
-2.479646e-10
-8.485048e-11
9.945690e-11
2.946191e-10
4.910202e-10
6.798562e-10
8.532202e-10
1.004186e-09
1.126887e-09
1.216599e-09
1.269822e-09
1.284367e-09
1.259451e-09
1.195800e-09
1.095762e-09
9.634392e-10
8.048274e-10
6.279826e-10
4.432020e-10
2.632299e-10
1.034900e-10
-1.765220e-11
-7.859276e-11
-5.414966e-11
-8.828292e-11
-2.062344e-10
-2.335793e-10
-1.832426e-10
-6.806996e-11
9.926437e-11
3.063613e-10
5.412080e-10
7.922903e-10
1.048705e-09
1.300264e-09
1.537600e-09
1.752258e-09
1.936784e-09
2.084811e-09
2.191142e-09
2.251830e-09
2.264267e-09
2.227272e-09
2.141193e-09
2.008017e-09
1.831492e-09
1.617276e-09
1.373085e-09
1.108884e-09
8.370876e-10
5.727961e-10
3.340613e-10
1.421933e-10
2.211277e-11
-3.747936e-11
-5.609561e-11
1.330039e-11
1.575149e-10
3.633290e-10
6.176069e-10
9.074189e-10
1.220172e-09
1.543744e-09
1.866607e-09
2.177957e-09
2.467819e-09
2.727157e-09
2.947962e-09
3.123343e-09
3.247609e-09
3.316347e-09
3.326505e-09
3.276480e-09
3.166212e-09
2.997289e-09
2.773071e-09
2.498822e-09
2.181872e-09
1.831792e-09
1.460605e-09
1.083016e-09
7.166912e-10
3.825676e-10
1.052223e-10
1.711767e-11
1.054388e-10
2.791653e-10
5.247698e-10
8.285825e-10
1.176922e-09
1.556244e-09
1.953294e-09
2.355264e-09
2.749943e-09
3.125851e-09
3.472366e-09
3.779836e-09
4.039672e-09
4.244438e-09
4.387933e-09
4.465260e-09
4.472907e-09
4.408828e-09
4.272526e-09
4.065161e-09
3.789660e-09
3.450853e-09
3.055623e-09
2.613091e-09
2.134815e-09
1.635031e-09
1.130935e-09
6.429975e-10
1.953528e-10
7.553490e-11
2.784944e-10
5.643010e-10
9.190142e-10
1.328420e-09
1.778189e-09
2.254061e-09
2.742025e-09
3.228503e-09
3.700525e-09
4.145879e-09
4.553251e-09
4.912341e-09
5.213958e-09
5.450110e-09
5.614070e-09
5.700452e-09
5.705270e-09
5.626017e-09
5.461740e-09
5.213138e-09
4.882669e-09
4.474677e-09
3.995547e-09
3.453880e-09
2.860697e-09
2.229681e-09
1.577459e-09
9.239336e-10
2.926730e-10
1.378107e-10
4.632395e-10
8.690758e-10
1.340867e-09
1.863737e-09
2.422590e-09
3.002324e-09
3.588060e-09
4.165354e-09
4.720394e-09
5.240178e-09
5.712654e-09
6.126848e-09
6.472954e-09
6.742414e-09
6.927979e-09
7.023768e-09
7.025321e-09
6.929656e-09
6.735349e-09
6.442607e-09
6.053380e-09
5.571481e-09
5.002735e-09
4.355154e-09
3.639140e-09
2.867730e-09
2.056878e-09
1.225793e-09
3.973412e-10
2.039988e-10
6.598979e-10
1.193964e-09
1.791105e-09
2.435642e-09
3.111557e-09
3.802765e-09
4.493386e-09
5.167997e-09
5.811861e-09
6.411118e-09
6.952943e-09
7.425669e-09
7.818870e-09
8.123429e-09
8.331587e-09
8.436978e-09
8.434670e-09
8.321209e-09
8.094680e-09
7.754775e-09
7.302898e-09
6.742277e-09
6.078115e-09
5.317758e-09
4.470903e-09
3.549837e-09
2.569724e-09
1.548944e-09
5.094985e-10
2.741735e-10
8.687661e-10
1.539575e-09
2.270709e-09
3.045503e-09
3.846834e-09
4.657460e-09
5.460343e-09
6.238957e-09
6.977545e-09
7.661331e-09
8.276688e-09
8.811245e-09
9.253973e-09
9.595221e-09
9.826743e-09
9.941715e-09
9.934751e-09
9.801929e-09
9.540831e-09
9.150612e-09
8.632088e-09
7.987848e-09
7.222401e-09
6.342346e-09
5.356577e-09
4.276521e-09
3.116424e-09
1.893683e-09
6.292620e-10
3.484369e-10
1.090237e-09
1.906697e-09
2.780920e-09
3.695026e-09
4.630560e-09
5.568909e-09
6.491701e-09
7.381166e-09
8.220429e-09
8.993746e-09
9.686667e-09
1.028614e-08
1.078056e-08
1.115979e-08
1.141516e-08
1.153941e-08
1.152674e-08
1.137277e-08
1.107459e-08
1.063077e-08
1.004151e-08
9.308681e-09
8.436034e-09
7.429325e-09
6.296540e-09
5.048125e-09
3.697268e-09
2.260223e-09
7.567182e-10
4.269292e-10
1.324832e-09
2.296351e-09
3.323316e-09
4.386344e-09
5.465364e-09
6.540139e-09
7.590756e-09
8.598043e-09
9.543914e-09
1.041161e-08
1.118588e-08
1.185301e-08
1.240091e-08
1.281902e-08
1.309831e-08
1.323118e-08
1.321145e-08
1.303431e-08
1.269633e-08
1.219549e-08
1.153131e-08
1.070490e-08
9.719125e-09
8.578811e-09
7.290918e-09
5.864783e-09
4.312386e-09
2.648669e-09
8.919156e-10
5.098419e-10
1.573242e-09
2.709864e-09
3.899911e-09
5.122133e-09
6.354496e-09
7.574832e-09
8.761441e-09
9.893589e-09
1.095189e-08
1.191855e-08
1.277753e-08
1.351459e-08
1.411721e-08
1.457457e-08
1.487736e-08
1.501774e-08
1.498922e-08
1.478659e-08
1.440590e-08
1.384451e-08
1.310119e-08
1.217618e-08
1.107139e-08
9.790577e-09
8.339546e-09
6.726389e-09
4.961726e-09
3.059008e-09
1.034859e-09
5.974358e-10
1.836389e-09
3.148963e-09
4.513285e-09
5.905772e-09
7.301990e-09
8.677477e-09
1.000847e-08
1.127249e-08
1.244878e-08
1.351853e-08
1.446503e-08
1.527359e-08
1.593147e-08
1.642773e-08
1.675297e-08
1.689921e-08
1.685974e-08
1.662898e-08
1.620248e-08
1.557693e-08
1.475024e-08
1.372169e-08
1.249210e-08
1.106401e-08
9.441938e-09
7.632576e-09
5.645033e-09
3.491090e-09
1.185502e-09
6.900658e-10
2.115495e-09
3.615902e-09
5.166750e-09
6.741531e-09
8.312871e-09
9.853572e-09
1.133750e-08
1.274025e-08
1.403965e-08
1.521596e-08
1.625191e-08
1.713262e-08
1.784537e-08
1.837929e-08
1.872512e-08
1.887493e-08
1.882185e-08
1.856001e-08
1.808443e-08
1.739106e-08
1.647686e-08
1.533999e-08
1.398000e-08
1.239808e-08
1.059726e-08
8.582706e-09
6.361844e-09
3.944630e-09
1.343749e-09
7.882122e-10
2.412185e-09
4.113629e-09
5.864573e-09
7.634827e-09
9.393410e-09
1.110986e-08
1.275532e-08
1.430332e-08
1.573025e-08
1.701559e-08
1.814180e-08
1.909409e-08
1.986006e-08
2.042930e-08
2.079291e-08
2.094319e-08
2.087330e-08
2.057711e-08
2.004907e-08
1.928428e-08
1.827862e-08
1.702893e-08
1.553329e-08
1.379130e-08
1.180436e-08
9.575880e-09
7.111503e-09
4.419209e-09
1.509450e-09
8.925242e-10
2.728619e-09
4.645999e-09
6.612256e-09
8.592546e-09
1.055145e-08
1.245463e-08
1.427011e-08
1.596923e-08
1.752707e-08
1.892255e-08
2.013825e-08
2.115992e-08
2.197595e-08
2.257675e-08
2.295416e-08
2.310095e-08
2.301047e-08
2.267635e-08
2.209244e-08
2.125286e-08
2.015216e-08
1.878562e-08
1.714957e-08
1.524177e-08
1.306173e-08
1.061097e-08
7.893187e-09
4.914294e-09
1.682409e-09
1.003878e-09
3.067668e-09
5.218069e-09
7.416911e-09
9.623457e-09
1.179682e-08
1.389804e-08
1.589168e-08
1.774679e-08
1.943736e-08
2.094222e-08
2.224459e-08
2.333137e-08
2.419233e-08
2.481923e-08
2.520508e-08
2.534343e-08
2.522797e-08
2.485213e-08
2.420907e-08
2.329171e-08
2.209300e-08
2.060629e-08
1.882582e-08
1.674716e-08
1.436764e-08
1.168670e-08
8.705976e-09
5.429284e-09
1.862397e-09
1.123453e-09
3.433152e-09
5.836476e-09
8.287752e-09
1.073875e-08
1.314183e-08
1.545260e-08
1.763176e-08
1.964617e-08
2.146914e-08
2.308004e-08
2.446356e-08
2.560854e-08
2.650690e-08
2.715242e-08
2.753976e-08
2.766363e-08
2.751820e-08
2.709676e-08
2.639160e-08
2.539416e-08
2.409540e-08
2.248628e-08
2.055844e-08
1.830482e-08
1.572023e-08
1.280177e-08
9.548968e-09
5.963583e-09
2.049176e-09
1.252840e-09
3.830161e-09
6.509957e-09
9.236736e-09
1.195271e-08
1.460193e-08
1.713362e-08
1.950434e-08
2.167904e-08
2.363105e-08
2.534129e-08
2.679695e-08
2.798994e-08
2.891525e-08
2.956949e-08
2.994957e-08
3.005175e-08
2.987088e-08
2.940005e-08
2.863046e-08
2.755171e-08
2.615221e-08
2.441992e-08
2.234325e-08
1.991189e-08
1.711767e-08
1.395507e-08
1.042146e-08
6.516718e-09
2.242537e-09
1.394186e-09
4.265498e-09
7.250048e-09
1.027943e-08
1.328362e-08
1.619647e-08
1.895979e-08
2.152593e-08
2.385855e-08
2.593214e-08
2.773055e-08
2.924499e-08
3.047174e-08
3.141008e-08
3.206037e-08
3.242248e-08
3.249458e-08
3.227240e-08
3.174873e-08
3.091342e-08
2.975366e-08
2.825464e-08
2.640053e-08
2.417561e-08
2.156553e-08
1.855847e-08
1.514596e-08
1.132319e-08
7.088520e-09
2.442365e-09
1.550398e-09
4.748290e-09
8.072042e-09
1.143616e-08
1.475492e-08
1.794965e-08
2.095384e-08
2.371584e-08
2.619921e-08
2.838137e-08
3.025109e-08
3.180545e-08
3.304687e-08
3.398030e-08
3.461089e-08
3.494218e-08
3.497471e-08
3.470517e-08
3.412594e-08
3.322509e-08
3.198677e-08
3.039209e-08
2.842032e-08
2.605050e-08
2.326313e-08
2.004185e-08
1.637473e-08
1.225477e-08
7.679383e-09
2.648720e-09
1.725432e-09
5.290857e-09
8.996323e-09
1.273355e-08
1.639663e-08
1.989168e-08
2.314312e-08
2.609620e-08
2.871647e-08
3.098686e-08
3.290374e-08
3.447257e-08
3.570390e-08
3.660994e-08
3.720176e-08
3.748726e-08
3.746973e-08
3.714690e-08
3.651052e-08
3.554638e-08
3.423482e-08
3.255178e-08
3.047032e-08
2.796269e-08
2.500273e-08
2.156828e-08
1.764316e-08
1.321820e-08
8.290647e-09
2.861975e-09
1.924717e-09
5.909960e-09
1.005026e-08
1.420669e-08
1.824732e-08
2.206007e-08
2.556013e-08
2.869177e-08
3.142582e-08
3.375453e-08
3.568546e-08
3.723548e-08
3.842560e-08
3.927691e-08
3.980749e-08
4.003024e-08
3.995144e-08
3.956986e-08
3.887635e-08
3.785387e-08
3.647808e-08
3.471847e-08
3.254021e-08
2.990684e-08
2.678344e-08
2.314017e-08
1.895541e-08
1.421765e-08
8.925148e-09
3.083003e-09
2.155780e-09
6.628649e-09
1.127089e-08
1.590197e-08
2.035641e-08
2.450097e-08
2.824275e-08
3.152900e-08
3.434114e-08
3.668610e-08
3.858721e-08
4.007628e-08
4.118724e-08
4.195161e-08
4.239532e-08
4.253667e-08
4.238507e-08
4.194019e-08
4.119168e-08
4.011914e-08
3.869261e-08
3.687376e-08
3.461797e-08
3.187752e-08
2.860587e-08
2.476275e-08
2.031912e-08
1.526062e-08
9.588023e-09
3.313455e-09
2.429219e-09
7.479071e-09
1.270898e-08
1.788118e-08
2.278722e-08
2.727045e-08
3.123361e-08
3.463409e-08
3.747196e-08
3.977606e-08
4.159111e-08
4.296764e-08
4.395477e-08
4.459556e-08
4.492424e-08
4.496454e-08
4.472880e-08
4.421741e-08
4.341855e-08
4.230799e-08
4.084941e-08
3.899535e-08
3.668922e-08
3.386896e-08
3.047254e-08
2.644514e-08
2.174695e-08
1.635952e-08
1.028790e-08
3.556173e-09
2.760213e-09
8.506822e-09
1.443485e-08
2.022697e-08
2.562026e-08
3.043496e-08
3.457807e-08
3.802920e-08
4.081893e-08
4.300731e-08
4.466674e-08
4.586996e-08
4.668283e-08
4.716028e-08
4.734445e-08
4.726396e-08
4.693362e-08
4.635424e-08
4.551231e-08
4.437970e-08
4.291335e-08
4.105564e-08
3.873594e-08
3.587428e-08
3.238798e-08
2.820154e-08
2.325873e-08
1.753408e-08
1.103871e-08
3.815839e-09
3.171176e-09
9.778165e-09
1.654777e-08
2.305052e-08
2.895674e-08
3.407012e-08
3.831928e-08
4.172577e-08
4.436699e-08
4.634528e-08
4.776667e-08
4.872845e-08
4.931321e-08
4.958663e-08
4.959739e-08
4.937769e-08
4.894393e-08
4.829693e-08
4.742166e-08
4.628642e-08
4.484179e-08
4.301982e-08
4.073430e-08
3.788365e-08
3.435803e-08
3.005226e-08
2.488416e-08
1.881486e-08
1.186257e-08
4.099960e-09
3.695798e-09
1.139152e-08
1.918955e-08
2.650111e-08
3.292040e-08
3.825513e-08
4.248826e-08
4.571335e-08
4.807549e-08
4.973040e-08
5.082161e-08
5.147052e-08
5.177395e-08
5.180529e-08
5.161694e-08
5.124260e-08
5.069900e-08
4.998659e-08
4.908922e-08
4.797282e-08
4.658312e-08
4.484309e-08
4.265092e-08
3.988050e-08
3.638743e-08
3.202414e-08
2.666652e-08
2.024892e-08
1.279466e-08
4.420701e-09
4.388885e-09
1.350045e-08
2.256889e-08
3.077881e-08
3.765468e-08
4.305880e-08
4.708555e-08
4.994259e-08
5.186515e-08
5.306974e-08
5.373608e-08
5.400452e-08
5.398015e-08
5.373869e-08
5.333208e-08
5.279265e-08
5.213587e-08
5.136151e-08
5.045321e-08
4.937654e-08
4.807542e-08
4.646724e-08
4.443733e-08
4.183476e-08
3.847384e-08
3.414819e-08
2.866590e-08
2.190769e-08
1.389091e-08
4.797534e-09
5.335796e-09
1.634484e-08
2.698966e-08
3.614106e-08
4.330532e-08
4.850892e-08
5.205024e-08
5.430122e-08
5.560298e-08
5.622962e-08
5.638644e-08
5.622117e-08
5.583726e-08
5.530528e-08
5.467142e-08
5.396338e-08
5.319369e-08
5.236123e-08
5.145068e-08
5.043009e-08
4.924618e-08
4.781702e-08
4.602217e-08
4.369121e-08
4.059537e-08
3.645253e-08
3.096412e-08
2.390329e-08
1.524627e-08
5.264845e-09
6.715627e-09
2.035630e-08
3.292258e-08
4.290058e-08
4.997023e-08
5.453308e-08
5.721315e-08
5.858555e-08
5.908937e-08
5.903301e-08
5.862411e-08
5.799947e-08
5.724793e-08
5.642633e-08
5.556980e-08
5.469820e-08
5.381970e-08
5.293220e-08
5.202278e-08
5.106518e-08
5.001448e-08
4.879827e-08
4.730271e-08
4.535258e-08
4.268679e-08
3.893854e-08
3.365249e-08
2.639793e-08
1.701376e-08
5.878188e-09
8.766703e-09
2.619707e-08
4.100340e-08
5.134724e-08
5.758182e-08
6.085794e-08
6.223830e-08
6.247730e-08
6.205609e-08
6.126791e-08
6.028750e-08
5.921877e-08
5.812290e-08
5.703552e-08
5.597657e-08
5.495594e-08
5.397651e-08
5.303519e-08
5.212256e-08
5.122060e-08
5.029797e-08
4.930134e-08
4.813990e-08
4.665944e-08
4.459865e-08
4.153136e-08
3.681833e-08
2.966766e-08
1.951532e-08
6.768588e-09
1.250802e-08
3.547315e-08
5.213209e-08
6.149401e-08
6.566180e-08
6.687961e-08
6.657867e-08
6.554783e-08
6.418915e-08
6.271327e-08
6.122508e-08
5.977750e-08
5.839561e-08
5.709026e-08
5.586482e-08
5.471885e-08
5.364981e-08
5.265372e-08
5.172482e-08
5.085424e-08
5.002689e-08
4.921524e-08
4.836675e-08
4.737925e-08
4.604850e-08
4.397962e-08
4.039247e-08
3.395341e-08
2.319639e-08
8.134238e-09
1.837714e-08
5.000317e-08
6.684500e-08
7.244125e-08
7.295482e-08
7.157860e-08
6.951455e-08
6.732419e-08
6.519024e-08
6.318639e-08
6.132932e-08
5.961664e-08
5.803839e-08
5.658305e-08
5.523984e-08
5.399963e-08
5.285537e-08
5.180209e-08
5.083683e-08
4.995825e-08
4.916575e-08
4.845714e-08
4.782309e-08
4.723299e-08
4.659984e-08
4.569268e-08
4.385518e-08
3.968077e-08
2.963600e-08
1.090674e-08
3.687569e-08
7.519926e-08
8.244920e-08
8.125636e-08
7.735941e-08
7.369499e-08
7.035717e-08
6.744006e-08
6.487493e-08
6.260402e-08
6.057386e-08
5.874226e-08
5.707615e-08
5.555011e-08
5.414479e-08
5.284587e-08
5.164334e-08
5.053117e-08
4.950732e-08
4.857409e-08
4.773895e-08
4.701560e-08
4.642553e-08
4.599806e-08
4.576907e-08
4.574710e-08
4.582957e-08
4.526067e-08
3.897012e-08
1.672063e-08
6.966694e-08
1.029881e-07
8.981157e-08
8.280251e-08
7.686871e-08
7.242735e-08
6.883179e-08
6.583956e-08
6.327770e-08
6.103661e-08
5.904152e-08
5.723982e-08
5.559348e-08
5.407446e-08
5.266187e-08
5.134025e-08
5.009851e-08
4.892949e-08
4.782993e-08
4.680104e-08
4.584965e-08
4.499056e-08
4.425047e-08
4.367519e-08
4.334348e-08
4.338605e-08
4.408752e-08
4.561262e-08
4.985018e-08
4.512301e-08
SCALARS DxTHETA double 1
LOOKUP_TABLE dxtheta
4.964078e-08
5.023755e-08
5.086579e-08
5.152716e-08
5.222330e-08
5.295601e-08
5.372730e-08
5.453946e-08
5.539508e-08
5.629711e-08
5.724887e-08
5.825411e-08
5.931708e-08
6.044254e-08
6.163585e-08
6.290306e-08
6.425100e-08
6.568738e-08
6.722092e-08
6.886154e-08
7.062050e-08
7.251066e-08
7.454675e-08
7.674567e-08
7.912690e-08
8.171297e-08
8.452997e-08
8.760827e-08
9.098316e-08
9.469562e-08
4.911516e-08
4.970001e-08
5.031520e-08
5.096237e-08
5.164330e-08
5.235995e-08
5.311447e-08
5.390927e-08
5.474703e-08
5.563075e-08
5.656382e-08
5.755002e-08
5.859359e-08
5.969932e-08
6.087256e-08
6.211935e-08
6.344648e-08
6.486163e-08
6.637345e-08
6.799179e-08
6.972780e-08
7.159421e-08
7.360555e-08
7.577847e-08
7.813210e-08
8.068851e-08
8.347319e-08
8.651570e-08
8.985043e-08
9.351755e-08
4.859072e-08
4.916406e-08
4.976701e-08
5.040108e-08
5.106806e-08
5.176996e-08
5.250901e-08
5.328768e-08
5.410874e-08
5.497523e-08
5.589058e-08
5.685860e-08
5.788356e-08
5.897022e-08
6.012395e-08
6.135075e-08
6.265738e-08
6.405145e-08
6.554157e-08
6.713745e-08
6.885013e-08
7.069217e-08
7.267788e-08
7.482363e-08
7.714821e-08
7.967324e-08
8.242368e-08
8.542850e-08
8.872151e-08
9.234245e-08
4.806855e-08
4.863073e-08
4.922194e-08
4.984361e-08
5.049748e-08
5.118555e-08
5.191008e-08
5.267358e-08
5.347884e-08
5.432897e-08
5.522741e-08
5.617798e-08
5.718497e-08
5.825313e-08
5.938782e-08
6.059500e-08
6.188140e-08
6.325455e-08
6.472296e-08
6.629626e-08
6.798533e-08
6.980254e-08
7.176199e-08
7.387977e-08
7.617434e-08
7.866690e-08
8.138201e-08
8.434815e-08
8.759866e-08
9.117293e-08
4.754916e-08
4.810048e-08
4.868033e-08
4.929006e-08
4.993137e-08
5.060625e-08
5.131694e-08
5.206597e-08
5.285614e-08
5.369058e-08
5.457273e-08
5.550645e-08
5.649599e-08
5.754613e-08
5.866217e-08
5.985005e-08
6.111644e-08
6.246880e-08
6.391555e-08
6.546619e-08
6.713146e-08
6.892355e-08
7.085633e-08
7.294562e-08
7.520958e-08
7.766908e-08
8.034826e-08
8.327523e-08
8.648289e-08
9.001016e-08
4.703262e-08
4.757337e-08
4.814214e-08
4.874026e-08
4.936941e-08
5.003152e-08
5.072886e-08
5.146392e-08
5.223952e-08
5.305877e-08
5.392514e-08
5.484245e-08
5.581498e-08
5.684746e-08
5.794517e-08
5.911402e-08
6.036058e-08
6.169228e-08
6.311742e-08
6.464537e-08
6.628674e-08
6.805353e-08
6.995939e-08
7.201991e-08
7.425295e-08
7.667907e-08
7.932206e-08
8.220963e-08
8.537425e-08
8.885431e-08
4.651874e-08
4.704918e-08
4.760710e-08
4.819386e-08
4.881110e-08
4.946076e-08
5.014506e-08
5.086651e-08
5.162790e-08
5.243235e-08
5.328329e-08
5.418456e-08
5.514039e-08
5.615550e-08
5.723513e-08
5.838514e-08
5.961206e-08
6.092320e-08
6.232678e-08
6.383206e-08
6.544949e-08
6.719088e-08
6.906971e-08
7.110132e-08
7.330330e-08
7.569592e-08
7.830261e-08
8.115069e-08
8.427218e-08
8.770482e-08
4.600712e-08
4.652746e-08
4.707473e-08
4.765030e-08
4.825583e-08
4.889324e-08
4.956474e-08
5.027282e-08
5.102026e-08
5.181015e-08
5.264592e-08
5.353138e-08
5.447075e-08
5.546871e-08
5.653046e-08
5.766179e-08
5.886918e-08
6.015986e-08
6.154195e-08
6.302458e-08
6.461806e-08
6.633405e-08
6.818581e-08
7.018847e-08
7.235935e-08
7.471843e-08
7.728880e-08
8.009738e-08
8.317565e-08
8.656072e-08
4.549722e-08
4.600765e-08
4.654441e-08
4.710894e-08
4.770288e-08
4.832818e-08
4.898702e-08
4.968188e-08
5.041552e-08
5.119102e-08
5.201179e-08
5.288162e-08
5.380468e-08
5.478562e-08
5.582961e-08
5.694238e-08
5.813034e-08
5.940064e-08
6.076129e-08
6.222131e-08
6.379086e-08
6.548146e-08
6.730616e-08
6.927987e-08
7.141967e-08
7.374523e-08
7.627929e-08
7.904834e-08
8.208333e-08
8.542069e-08
4.498839e-08
4.548904e-08
4.601543e-08
4.656900e-08
4.715145e-08
4.776471e-08
4.841097e-08
4.909269e-08
4.981262e-08
5.057383e-08
5.137969e-08
5.223396e-08
5.314081e-08
5.410483e-08
5.513113e-08
5.622541e-08
5.739399e-08
5.864394e-08
5.998319e-08
6.142063e-08
6.296629e-08
6.463151e-08
6.642918e-08
6.837397e-08
7.048272e-08
7.277478e-08
7.527255e-08
7.800205e-08
8.099368e-08
8.428316e-08
4.447990e-08
4.497089e-08
4.548697e-08
4.602966e-08
4.660066e-08
4.720191e-08
4.783562e-08
4.850423e-08
4.921048e-08
4.995742e-08
5.074840e-08
5.158716e-08
5.247781e-08
5.342493e-08
5.443358e-08
5.550938e-08
5.665861e-08
5.788824e-08
5.920610e-08
6.062097e-08
6.214274e-08
6.378261e-08
6.555326e-08
6.746916e-08
6.954688e-08
7.180546e-08
7.426692e-08
7.695682e-08
7.990500e-08
8.314643e-08
4.397099e-08
4.445237e-08
4.495820e-08
4.549003e-08
4.604958e-08
4.663883e-08
4.725996e-08
4.791544e-08
4.860799e-08
4.934063e-08
5.011671e-08
5.093992e-08
5.181437e-08
5.274457e-08
5.373554e-08
5.479285e-08
5.592269e-08
5.713198e-08
5.842843e-08
5.982073e-08
6.131861e-08
6.293312e-08
6.467675e-08
6.656376e-08
6.861044e-08
7.083552e-08
7.326064e-08
7.591088e-08
7.881548e-08
8.200867e-08
4.346084e-08
4.393264e-08
4.442823e-08
4.494918e-08
4.549726e-08
4.607445e-08
4.668297e-08
4.732525e-08
4.800403e-08
4.872230e-08
4.948340e-08
5.029100e-08
5.114916e-08
5.206237e-08
5.303560e-08
5.407435e-08
5.518476e-08
5.637365e-08
5.764865e-08
5.901832e-08
6.049227e-08
6.208139e-08
6.379798e-08
6.565606e-08
6.767167e-08
6.986320e-08
7.225190e-08
7.486236e-08
7.772322e-08
8.086799e-08
4.294861e-08
4.341082e-08
4.389613e-08
4.440616e-08
4.494271e-08
4.550777e-08
4.610357e-08
4.673256e-08
4.739745e-08
4.810124e-08
4.884725e-08
4.963912e-08
5.048088e-08
5.137699e-08
5.233236e-08
5.335245e-08
5.444332e-08
5.561172e-08
5.686518e-08
5.821215e-08
5.966210e-08
6.122575e-08
6.291522e-08
6.474431e-08
6.672877e-08
6.888667e-08
7.123884e-08
7.380937e-08
7.662632e-08
7.972241e-08
4.243346e-08
4.288601e-08
4.336098e-08
4.386000e-08
4.438492e-08
4.493774e-08
4.552069e-08
4.613625e-08
4.678711e-08
4.747627e-08
4.820703e-08
4.898301e-08
4.980822e-08
5.068707e-08
5.162443e-08
5.262571e-08
5.369691e-08
5.484468e-08
5.607647e-08
5.740061e-08
5.882645e-08
6.036453e-08
6.202678e-08
6.382676e-08
6.577995e-08
6.790408e-08
7.021956e-08
7.274999e-08
7.552279e-08
7.856997e-08
4.191451e-08
4.235732e-08
4.282183e-08
4.330973e-08
4.382288e-08
4.436330e-08
4.493325e-08
4.553520e-08
4.617185e-08
4.684619e-08
4.756150e-08
4.832140e-08
4.912986e-08
4.999125e-08
5.091041e-08
5.189270e-08
5.294404e-08
5.407101e-08
5.528096e-08
5.658211e-08
5.798367e-08
5.949602e-08
6.113090e-08
6.290163e-08
6.482339e-08
6.691357e-08
6.919217e-08
7.168227e-08
7.441067e-08
7.740863e-08
4.139089e-08
4.182382e-08
4.227774e-08
4.275436e-08
4.325557e-08
4.378342e-08
4.434016e-08
4.492829e-08
4.555051e-08
4.620980e-08
4.690944e-08
4.765301e-08
4.844448e-08
4.928818e-08
5.018892e-08
5.115198e-08
5.218323e-08
5.328918e-08
5.447709e-08
5.575504e-08
5.713213e-08
5.861856e-08
6.022587e-08
6.196713e-08
6.385726e-08
6.591327e-08
6.815475e-08
7.060426e-08
7.328798e-08
7.623641e-08
4.086173e-08
4.128462e-08
4.172776e-08
4.219291e-08
4.268197e-08
4.319702e-08
4.374033e-08
4.431439e-08
4.492192e-08
4.556590e-08
4.624959e-08
4.697657e-08
4.775078e-08
4.857651e-08
4.945854e-08
5.040211e-08
5.141301e-08
5.249769e-08
5.366329e-08
5.491780e-08
5.627017e-08
5.773043e-08
5.930993e-08
6.102150e-08
6.287974e-08
6.490133e-08
6.710540e-08
6.951403e-08
7.215274e-08
7.505128e-08
4.032616e-08
4.073880e-08
4.117096e-08
4.162440e-08
4.210107e-08
4.260306e-08
4.313267e-08
4.369238e-08
4.428493e-08
4.491330e-08
4.558074e-08
4.629081e-08
4.704744e-08
4.785490e-08
4.871791e-08
4.964167e-08
5.063192e-08
5.169501e-08
5.283801e-08
5.406880e-08
5.539616e-08
5.682997e-08
5.838138e-08
6.006296e-08
6.188902e-08
6.387588e-08
6.604224e-08
6.840964e-08
7.100299e-08
7.385126e-08
3.978332e-08
4.018547e-08
4.060638e-08
4.104786e-08
4.151186e-08
4.200051e-08
4.251610e-08
4.306115e-08
4.363839e-08
4.425081e-08
4.490165e-08
4.559447e-08
4.633317e-08
4.712199e-08
4.796564e-08
4.886924e-08
4.983849e-08
5.087966e-08
5.199972e-08
5.320644e-08
5.450846e-08
5.591550e-08
5.743849e-08
5.908975e-08
6.088331e-08
6.283510e-08
6.496340e-08
6.728921e-08
6.983680e-08
7.263437e-08
3.923237e-08
3.962374e-08
4.003312e-08
4.046233e-08
4.091334e-08
4.138831e-08
4.188955e-08
4.241958e-08
4.298115e-08
4.357724e-08
4.421111e-08
4.488629e-08
4.560667e-08
4.637647e-08
4.720035e-08
4.808341e-08
4.903127e-08
5.005014e-08
5.114688e-08
5.232916e-08
5.360547e-08
5.498537e-08
5.647957e-08
5.810015e-08
5.986082e-08
6.177717e-08
6.386702e-08
6.615083e-08
6.865225e-08
7.139869e-08
3.867246e-08
3.905275e-08
3.945026e-08
3.986686e-08
4.030454e-08
4.076546e-08
4.125196e-08
4.176659e-08
4.231208e-08
4.289144e-08
4.350791e-08
4.416503e-08
4.486666e-08
4.561701e-08
4.642070e-08
4.728279e-08
4.820883e-08
4.920497e-08
5.027798e-08
5.143540e-08
5.268560e-08
5.403795e-08
5.550295e-08
5.709245e-08
5.881983e-08
6.070032e-08
6.275129e-08
6.499268e-08
6.744748e-08
7.014232e-08
3.810277e-08
3.847162e-08
3.885691e-08
3.926052e-08
3.968447e-08
4.013095e-08
4.060230e-08
4.110109e-08
4.163008e-08
4.219225e-08
4.279087e-08
4.342947e-08
4.411188e-08
4.484232e-08
4.562535e-08
4.646600e-08
4.736976e-08
4.834271e-08
4.939153e-08
5.052364e-08
5.174727e-08
5.307163e-08
5.450700e-08
5.606497e-08
5.775862e-08
5.960281e-08
6.161445e-08
6.381296e-08
6.622065e-08
6.886339e-08
3.752249e-08
3.787952e-08
3.825219e-08
3.864240e-08
3.905220e-08
3.948379e-08
3.993955e-08
4.042204e-08
4.093403e-08
4.147854e-08
4.205882e-08
4.267839e-08
4.334110e-08
4.405111e-08
4.481298e-08
4.563168e-08
4.651267e-08
4.746193e-08
4.848607e-08
4.959238e-08
5.078897e-08
5.208484e-08
5.349010e-08
5.501607e-08
5.667552e-08
5.848293e-08
6.045477e-08
6.260990e-08
6.497000e-08
6.756012e-08
3.693084e-08
3.727563e-08
3.763525e-08
3.801162e-08
3.840680e-08
3.882303e-08
3.926269e-08
3.972838e-08
4.022288e-08
4.074920e-08
4.131061e-08
4.191062e-08
4.255308e-08
4.324213e-08
4.398230e-08
4.477852e-08
4.563620e-08
4.656124e-08
4.756017e-08
4.864016e-08
4.980918e-08
5.107607e-08
5.245071e-08
5.394417e-08
5.556892e-08
5.733905e-08
5.927058e-08
6.138183e-08
6.369380e-08
6.623078e-08
3.632706e-08
3.665915e-08
3.700524e-08
3.736728e-08
3.774736e-08
3.814771e-08
3.857076e-08
3.901911e-08
3.949556e-08
4.000314e-08
4.054511e-08
4.112500e-08
4.174664e-08
4.241415e-08
4.313205e-08
4.390522e-08
4.473902e-08
4.563928e-08
4.661244e-08
4.766556e-08
4.880646e-08
5.004382e-08
5.138731e-08
5.284773e-08
5.443725e-08
5.616957e-08
5.806027e-08
6.012711e-08
6.239043e-08
6.487371e-08
3.571039e-08
3.602930e-08
3.636137e-08
3.670856e-08
3.707299e-08
3.745692e-08
3.786280e-08
3.829323e-08
3.875105e-08
3.923929e-08
3.976123e-08
4.032040e-08
4.092061e-08
4.156598e-08
4.226100e-08
4.301053e-08
4.381984e-08
4.469473e-08
4.564153e-08
4.666720e-08
4.777941e-08
4.898668e-08
5.029845e-08
5.172528e-08
5.327901e-08
5.497298e-08
5.682231e-08
5.884419e-08
6.105831e-08
6.348734e-08
3.508012e-08
3.538533e-08
3.570284e-08
3.603463e-08
3.638285e-08
3.674977e-08
3.713787e-08
3.754978e-08
3.798835e-08
3.845663e-08
3.895791e-08
3.949572e-08
4.007386e-08
4.069647e-08
4.136798e-08
4.209322e-08
4.287743e-08
4.372633e-08
4.464616e-08
4.564377e-08
4.672669e-08
4.790327e-08
4.918274e-08
5.057540e-08
5.209278e-08
5.374784e-08
5.555524e-08
5.753161e-08
5.969598e-08
6.207019e-08
3.443555e-08
3.472651e-08
3.502889e-08
3.534470e-08
3.567609e-08
3.602539e-08
3.639508e-08
3.678783e-08
3.720650e-08
3.765416e-08
3.813411e-08
3.864989e-08
3.920531e-08
3.980448e-08
4.045182e-08
4.115213e-08
4.191059e-08
4.273285e-08
4.362508e-08
4.459401e-08
4.564703e-08
4.679231e-08
4.803888e-08
4.939679e-08
5.087723e-08
5.249280e-08
5.425770e-08
5.618800e-08
5.830206e-08
6.062090e-08
3.377602e-08
3.405214e-08
3.433879e-08
3.463798e-08
3.495192e-08
3.528294e-08
3.563356e-08
3.600646e-08
3.640455e-08
3.683090e-08
3.728883e-08
3.778190e-08
3.831391e-08
3.888895e-08
3.951145e-08
4.018614e-08
4.091819e-08
4.171316e-08
4.257714e-08
4.351674e-08
4.453923e-08
4.565259e-08
4.686565e-08
4.818819e-08
4.963111e-08
5.120662e-08
5.292844e-08
5.481211e-08
5.687530e-08
5.913823e-08
3.310088e-08
3.336155e-08
3.363182e-08
3.391375e-08
3.420956e-08
3.452161e-08
3.485245e-08
3.520481e-08
3.558159e-08
3.598592e-08
3.642112e-08
3.689076e-08
3.739864e-08
3.794886e-08
3.854581e-08
3.919421e-08
3.989916e-08
4.066618e-08
4.150123e-08
4.241086e-08
4.340217e-08
4.448299e-08
4.566192e-08
4.694849e-08
4.835329e-08
4.988814e-08
5.156632e-08
5.340280e-08
5.541458e-08
5.762106e-08
3.240951e-08
3.265408e-08
3.290731e-08
3.317128e-08
3.344825e-08
3.374061e-08
3.405095e-08
3.438202e-08
3.473676e-08
3.511832e-08
3.553005e-08
3.597552e-08
3.645856e-08
3.698324e-08
3.755394e-08
3.817535e-08
3.885252e-08
3.959089e-08
4.039637e-08
4.127536e-08
4.223485e-08
4.328249e-08
4.442666e-08
4.567666e-08
4.704274e-08
4.853636e-08
5.017034e-08
5.195908e-08
5.391892e-08
5.606843e-08
3.170131e-08
3.192910e-08
3.216459e-08
3.240989e-08
3.266728e-08
3.293920e-08
3.322827e-08
3.353728e-08
3.386922e-08
3.422725e-08
3.461475e-08
3.503531e-08
3.549277e-08
3.599119e-08
3.653492e-08
3.712864e-08
3.777734e-08
3.848640e-08
3.926163e-08
4.010934e-08
4.103637e-08
4.205019e-08
4.315900e-08
4.437181e-08
4.569859e-08
4.715041e-08
4.873963e-08
5.048011e-08
5.238750e-08
5.447956e-08
3.097572e-08
3.118602e-08
3.140303e-08
3.162889e-08
3.186593e-08
3.211662e-08
3.238363e-08
3.266980e-08
3.297814e-08
3.331187e-08
3.367438e-08
3.406928e-08
3.450042e-08
3.497185e-08
3.548792e-08
3.605325e-08
3.667280e-08
3.735189e-08
3.809622e-08
3.891201e-08
3.980594e-08
4.078534e-08
4.185817e-08
4.303321e-08
4.432012e-08
4.572958e-08
4.727351e-08
4.896522e-08
5.081968e-08
5.285384e-08
3.023219e-08
3.042425e-08
3.062200e-08
3.082764e-08
3.104352e-08
3.127218e-08
3.151632e-08
3.177883e-08
3.206277e-08
3.237141e-08
3.270816e-08
3.307665e-08
3.348074e-08
3.392448e-08
3.441219e-08
3.494846e-08
3.553821e-08
3.618666e-08
3.689947e-08
3.768270e-08
3.854294e-08
3.948730e-08
4.052358e-08
4.166027e-08
4.290675e-08
4.427333e-08
4.577146e-08
4.741392e-08
4.921501e-08
5.119087e-08
2.947017e-08
2.964322e-08
2.982092e-08
3.000551e-08
3.019940e-08
3.040517e-08
3.062559e-08
3.086362e-08
3.112237e-08
3.140512e-08
3.171534e-08
3.205669e-08
3.243302e-08
3.284838e-08
3.330706e-08
3.381364e-08
3.437294e-08
3.499016e-08
3.567083e-08
3.642092e-08
3.724686e-08
3.815563e-08
3.915478e-08
4.025259e-08
4.145811e-08
4.278130e-08
4.423316e-08
4.582593e-08
4.757326e-08
4.949048e-08
2.868914e-08
2.884237e-08
2.899918e-08
2.916187e-08
2.933289e-08
2.951491e-08
2.971077e-08
2.992348e-08
3.015621e-08
3.041230e-08
3.069525e-08
3.100875e-08
3.135663e-08
3.174296e-08
3.217200e-08
3.264827e-08
3.317655e-08
3.376196e-08
3.440993e-08
3.512632e-08
3.591742e-08
3.679004e-08
3.775154e-08
3.880995e-08
3.997402e-08
4.125336e-08
4.265852e-08
4.420122e-08
4.589444e-08
4.775272e-08
2.788858e-08
2.802114e-08
2.815620e-08
2.829608e-08
2.844335e-08
2.860073e-08
2.877115e-08
2.895769e-08
2.916361e-08
2.939228e-08
2.964726e-08
2.993223e-08
3.025105e-08
3.060775e-08
3.100658e-08
3.145200e-08
3.194873e-08
3.250179e-08
3.311655e-08
3.379873e-08
3.455449e-08
3.539047e-08
3.631384e-08
3.733237e-08
3.845454e-08
3.968960e-08
4.104768e-08
4.253996e-08
4.417879e-08
4.597794e-08
2.706797e-08
2.717899e-08
2.729137e-08
2.740753e-08
2.753010e-08
2.766194e-08
2.780604e-08
2.796560e-08
2.814392e-08
2.834446e-08
2.857079e-08
2.882663e-08
2.911582e-08
2.944238e-08
2.981050e-08
3.022460e-08
3.068932e-08
3.120960e-08
3.179070e-08
3.243822e-08
3.315819e-08
3.395707e-08
3.484186e-08
3.582009e-08
3.689996e-08
3.809037e-08
3.940104e-08
4.084262e-08
4.242686e-08
4.416675e-08
2.622676e-08
2.631531e-08
2.640407e-08
2.649554e-08
2.659247e-08
2.669784e-08
2.681476e-08
2.694652e-08
2.709651e-08
2.726825e-08
2.746535e-08
2.769153e-08
2.795062e-08
2.824662e-08
2.858364e-08
2.896605e-08
2.939840e-08
2.988553e-08
3.043259e-08
3.104507e-08
3.172886e-08
3.249026e-08
3.333607e-08
3.427363e-08
3.531084e-08
3.645628e-08
3.771926e-08
3.910995e-08
4.063948e-08
4.232007e-08
2.536438e-08
2.542951e-08
2.549364e-08
2.555942e-08
2.562974e-08
2.570771e-08
2.579658e-08
2.589977e-08
2.602076e-08
2.616312e-08
2.633050e-08
2.652661e-08
2.675527e-08
2.702040e-08
2.732606e-08
2.767653e-08
2.807625e-08
2.852997e-08
2.904271e-08
2.961985e-08
3.026713e-08
3.099071e-08
3.179722e-08
3.269377e-08
3.368802e-08
3.478823e-08
3.600333e-08
3.734300e-08
3.881777e-08
4.043915e-08
2.448021e-08
2.452090e-08
2.455936e-08
2.459841e-08
2.464112e-08
2.469076e-08
2.475077e-08
2.482468e-08
2.491608e-08
2.502859e-08
2.516589e-08
2.533168e-08
2.552971e-08
2.576384e-08
2.603803e-08
2.635644e-08
2.672342e-08
2.714358e-08
2.762183e-08
2.816341e-08
2.877393e-08
2.945942e-08
3.022634e-08
3.108161e-08
3.203266e-08
3.308745e-08
3.425454e-08
3.554314e-08
3.696322e-08
3.852558e-08
2.357357e-08
2.358874e-08
2.360044e-08
2.361168e-08
2.362576e-08
2.364617e-08
2.367654e-08
2.372055e-08
2.378189e-08
2.386426e-08
2.397130e-08
2.410669e-08
2.427411e-08
2.447729e-08
2.472009e-08
2.500651e-08
2.534078e-08
2.572737e-08
2.617106e-08
2.667695e-08
2.725055e-08
2.789773e-08
2.862483e-08
2.943859e-08
3.034623e-08
3.135546e-08
3.247448e-08
3.371207e-08
3.507763e-08
3.658129e-08
2.264367e-08
2.263218e-08
2.261595e-08
2.259827e-08
2.258269e-08
2.257300e-08
2.257304e-08
2.258666e-08
2.261766e-08
2.266976e-08
2.274661e-08
2.285177e-08
2.298882e-08
2.316135e-08
2.337305e-08
2.362776e-08
2.392954e-08
2.428270e-08
2.469188e-08
2.516207e-08
2.569863e-08
2.630735e-08
2.699443e-08
2.776649e-08
2.863058e-08
2.959415e-08
3.066512e-08
3.185183e-08
3.316317e-08
3.460859e-08
2.168957e-08
2.165021e-08
2.160483e-08
2.155705e-08
2.151081e-08
2.147020e-08
2.143933e-08
2.142225e-08
2.142286e-08
2.144486e-08
2.149184e-08
2.156726e-08
2.167449e-08
2.181695e-08
2.199812e-08
2.222162e-08
2.249133e-08
2.281137e-08
2.318623e-08
2.362077e-08
2.412027e-08
2.469040e-08
2.533730e-08
2.606748e-08
2.688787e-08
2.780575e-08
2.882874e-08
2.996483e-08
3.122236e-08
3.261016e-08
2.071019e-08
2.064163e-08
2.056577e-08
2.048670e-08
2.040880e-08
2.033656e-08
2.027441e-08
2.022658e-08
2.019702e-08
2.018944e-08
2.020726e-08
2.025377e-08
2.033210e-08
2.044541e-08
2.059690e-08
2.078997e-08
2.102824e-08
2.131565e-08
2.165652e-08
2.205558e-08
2.251802e-08
2.304948e-08
2.365602e-08
2.434414e-08
2.512070e-08
2.599285e-08
2.696800e-08
2.805378e-08
2.925807e-08
3.058903e-08
1.970419e-08
1.960499e-08
1.949725e-08
1.938564e-08
1.927514e-08
1.917072e-08
1.907715e-08
1.899884e-08
1.893978e-08
1.890355e-08
1.889338e-08
1.891226e-08
1.896302e-08
1.904847e-08
1.917151e-08
1.933521e-08
1.954294e-08
1.979839e-08
2.010573e-08
2.046956e-08
2.089500e-08
2.138766e-08
2.195365e-08
2.259948e-08
2.333202e-08
2.415839e-08
2.508586e-08
2.612176e-08
2.727350e-08
2.854859e-08
1.866993e-08
1.853849e-08
1.839733e-08
1.825193e-08
1.810799e-08
1.797108e-08
1.784632e-08
1.773828e-08
1.765088e-08
1.758751e-08
1.755106e-08
1.754413e-08
1.756914e-08
1.762848e-08
1.772465e-08
1.786037e-08
1.803869e-08
1.826308e-08
1.853748e-08
1.886639e-08
1.925489e-08
1.970862e-08
2.023376e-08
2.083696e-08
2.152521e-08
2.230569e-08
2.318562e-08
2.417213e-08
2.527216e-08
2.649257e-08
1.760536e-08
1.743989e-08
1.726366e-08
1.708321e-08
1.690519e-08
1.673582e-08
1.658062e-08
1.644421e-08
1.633034e-08
1.624200e-08
1.618164e-08
1.615132e-08
1.615294e-08
1.618839e-08
1.625969e-08
1.636916e-08
1.651950e-08
1.671389e-08
1.695608e-08
1.725046e-08
1.760207e-08
1.801664e-08
1.850051e-08
1.906056e-08
1.970405e-08
2.043838e-08
2.127087e-08
2.220850e-08
2.325783e-08
2.442496e-08
1.650792e-08
1.630636e-08
1.609326e-08
1.587657e-08
1.566412e-08
1.546290e-08
1.527873e-08
1.511615e-08
1.497850e-08
1.486821e-08
1.478708e-08
1.473648e-08
1.471766e-08
1.473193e-08
1.478078e-08
1.486608e-08
1.499012e-08
1.515580e-08
1.536665e-08
1.562692e-08
1.594167e-08
1.631672e-08
1.675869e-08
1.727483e-08
1.787281e-08
1.856048e-08
1.934545e-08
2.023472e-08
2.123446e-08
2.234998e-08
1.537433e-08
1.513430e-08
1.488238e-08
1.462843e-08
1.438172e-08
1.415008e-08
1.393944e-08
1.375397e-08
1.359632e-08
1.346809e-08
1.337016e-08
1.330311e-08
1.326742e-08
1.326373e-08
1.329296e-08
1.335648e-08
1.345619e-08
1.359464e-08
1.377513e-08
1.400179e-08
1.427965e-08
1.461470e-08
1.501388e-08
1.548494e-08
1.603625e-08
1.667634e-08
1.741341e-08
1.825471e-08
1.920611e-08
2.027200e-08
1.420036e-08
1.391906e-08
1.362625e-08
1.333438e-08
1.305449e-08
1.279509e-08
1.256190e-08
1.235824e-08
1.218566e-08
1.204456e-08
1.193474e-08
1.185579e-08
1.180735e-08
1.178937e-08
1.180217e-08
1.184662e-08
1.192421e-08
1.203713e-08
1.218841e-08
1.238201e-08
1.262294e-08
1.291734e-08
1.327253e-08
1.369691e-08
1.419976e-08
1.479069e-08
1.547894e-08
1.627240e-08
1.717677e-08
1.819535e-08
1.298048e-08
1.265453e-08
1.231873e-08
1.198907e-08
1.167854e-08
1.139593e-08
1.114604e-08
1.093067e-08
1.074969e-08
1.060197e-08
1.048601e-08
1.040033e-08
1.034375e-08
1.031549e-08
1.031534e-08
1.034369e-08
1.040159e-08
1.049088e-08
1.061429e-08
1.077554e-08
1.097956e-08
1.123257e-08
1.154225e-08
1.191776e-08
1.236955e-08
1.290879e-08
1.354640e-08
1.429155e-08
1.515017e-08
1.612415e-08
1.170727e-08
1.133256e-08
1.095196e-08
1.058618e-08
1.025003e-08
9.951526e-09
9.693346e-09
9.474795e-09
9.293488e-09
9.146457e-09
9.030804e-09
8.944019e-09
8.884142e-09
8.849825e-09
8.840359e-09
8.855708e-09
8.896549e-09
8.964350e-09
9.061479e-09
9.191360e-09
9.358675e-09
9.569604e-09
9.832075e-09
1.015596e-08
1.055307e-08
1.103668e-08
1.162032e-08
1.231559e-08
1.312938e-08
1.406199e-08
1.037045e-08
9.941976e-09
9.515816e-09
9.118716e-09
8.766029e-09
8.462882e-09
8.207961e-09
7.996955e-09
7.824730e-09
7.686411e-09
7.577827e-09
7.495635e-09
7.437311e-09
7.401089e-09
7.385922e-09
7.391449e-09
7.418015e-09
7.466717e-09
7.539521e-09
7.639423e-09
7.770699e-09
7.939224e-09
8.152885e-09
8.422016e-09
8.759737e-09
9.181861e-09
9.705750e-09
1.034734e-08
1.111628e-08
1.201128e-08
8.955261e-09
8.467149e-09
7.997736e-09
7.580120e-09
7.226535e-09
6.935175e-09
6.698387e-09
6.507406e-09
6.354362e-09
6.232823e-09
6.137788e-09
6.065479e-09
6.013132e-09
5.978825e-09
5.961354e-09
5.960166e-09
5.975341e-09
6.007629e-09
6.058543e-09
6.130530e-09
6.227236e-09
6.353888e-09
6.517839e-09
6.729291e-09
7.002138e-09
7.354645e-09
7.809159e-09
8.389037e-09
9.110621e-09
9.972220e-09
7.438840e-09
6.885441e-09
6.383471e-09
5.967927e-09
5.638525e-09
5.380935e-09
5.179532e-09
5.021453e-09
4.897071e-09
4.799356e-09
4.723240e-09
4.665079e-09
4.622281e-09
4.593056e-09
4.576251e-09
4.571257e-09
4.577980e-09
4.596856e-09
4.628926e-09
4.675989e-09
4.740846e-09
4.827687e-09
4.942699e-09
5.094982e-09
5.297904e-09
5.570887e-09
5.941281e-09
6.443355e-09
7.108288e-09
7.940196e-09
5.784280e-09
5.165027e-09
4.662656e-09
4.292024e-09
4.022808e-09
3.824057e-09
3.674500e-09
3.559939e-09
3.471130e-09
3.401900e-09
3.348046e-09
3.306661e-09
3.275714e-09
3.253808e-09
3.240019e-09
3.233815e-09
3.235020e-09
3.243815e-09
3.260796e-09
3.287078e-09
3.324488e-09
3.375882e-09
3.445673e-09
3.540725e-09
3.671878e-09
3.856609e-09
4.123399e-09
4.516843e-09
5.099059e-09
5.901102e-09
3.916170e-09
3.267183e-09
2.854176e-09
2.593671e-09
2.422576e-09
2.302520e-09
2.214606e-09
2.148258e-09
2.097181e-09
2.057424e-09
2.026388e-09
2.002306e-09
1.983958e-09
1.970492e-09
1.961331e-09
1.956112e-09
1.954664e-09
1.957005e-09
1.963370e-09
1.974268e-09
1.990592e-09
2.013808e-09
2.046283e-09
2.091879e-09
2.157060e-09
2.253184e-09
2.401163e-09
2.644251e-09
3.071158e-09
3.803758e-09
1.685786e-09
1.227775e-09
1.055997e-09
9.647990e-10
9.058527e-10
8.652730e-10
8.355805e-10
8.131291e-10
7.957531e-10
7.821244e-10
7.713703e-10
7.628961e-10
7.562839e-10
7.512359e-10
7.475403e-10
7.450518e-10
7.436821e-10
7.433981e-10
7.442287e-10
7.462813e-10
7.497736e-10
7.550906e-10
7.628861e-10
7.742690e-10
7.911752e-10
8.171107e-10
8.589997e-10
9.318268e-10
1.073233e-09
1.508257e-09
